# =====================================================================
# Stage 2: NVT equilibration at 298 K
# System: MOF-5 (UFF, frozen) + 20 rigid CO2 molecules (TraPPE)
# LAMMPS 4 Jul 2026
# =====================================================================

units           real
atom_style      full
boundary        p p p

# ---------------------------------------------------------------------
# Restart from minimized structure
# ---------------------------------------------------------------------

read_restart    min.restart

# ---------------------------------------------------------------------
# PPPM must be redefined after read_restart
# ---------------------------------------------------------------------

kspace_style    pppm 1.0e-4

# ---------------------------------------------------------------------
# Angle style
# ---------------------------------------------------------------------

angle_style hybrid fourier cosine/periodic

angle_coeff 1 fourier           179.021796 0.343737 0.374972 0.281246
angle_coeff 2 fourier           172.607259 0.343737 0.374972 0.281246
angle_coeff 3 cosine/periodic   131.755710 -1 3
angle_coeff 4 cosine/periodic   187.136328 -1 3
angle_coeff 5 cosine/periodic   102.183280 -1 3
angle_coeff 6 cosine/periodic   111.297508 -1 3
angle_coeff 7 cosine/periodic    57.289016 -1 3
angle_coeff 8 cosine/periodic    23.613368 -1 3
angle_coeff 9 cosine/periodic    60.877639 -1 3

# ---------------------------------------------------------------------
# Groups
# ---------------------------------------------------------------------

group framework type 1 2 3 4 5
group co2       type 6 7

# ---------------------------------------------------------------------
# Freeze MOF framework
# ---------------------------------------------------------------------

fix freeze_frame framework setforce 0.0 0.0 0.0

# ---------------------------------------------------------------------
# Initial velocities
# Assign Maxwell-Boltzmann velocities BEFORE defining the rigid-body fix
# ---------------------------------------------------------------------

velocity co2 create 298.0 12345 mom yes rot yes dist gaussian

# ---------------------------------------------------------------------
# Rigid-body NVT thermostat
# ---------------------------------------------------------------------

fix rig co2 rigid/nvt/small molecule temp 298.0 298.0 100.0

# ---------------------------------------------------------------------
# Timestep
# ---------------------------------------------------------------------

timestep 1.0

# ---------------------------------------------------------------------
# Diagnostics
# ---------------------------------------------------------------------

compute co2_temp co2 temp

thermo_style custom step c_co2_temp ke pe etotal press
thermo 1000

# ---------------------------------------------------------------------
# Trajectory output
# ---------------------------------------------------------------------

dump d2 co2 custom 5000 nvt.dump id mol type x y z vx vy vz
dump_modify d2 sort id

# ---------------------------------------------------------------------
# Run: 500 ps equilibration
# ---------------------------------------------------------------------

run 500000

# ---------------------------------------------------------------------
# Save outputs
# ---------------------------------------------------------------------

write_restart nvt.restart
write_data    nvt_out.data

print "=========================================================="
print "Stage 2 (NVT equilibration) completed successfully."
print "=========================================================="