ITEM: TIMESTEP
5000
ITEM: NUMBER OF ATOMS
57
ITEM: BOX BOUNDS xy xz yz pp pp pp
0.0000000000000000e+00 1.0131084100000001e+02 2.7630201000000000e+01
0.0000000000000000e+00 5.8491914999999999e+01 1.8420141000000001e+01
0.0000000000000000e+00 3.0080027000000001e+01 1.0634897000000000e+01
ITEM: ATOMS id mol type x y z vx vy vz
1909 1000 6 54.9792 32.2248 17.5376 0.000674663 0.00101369 -0.00229145
1910 1000 7 55.167 31.1032 17.7703 0.000921757 0.00201243 0.0023223
1911 1000 6 56.1065 30.5205 18.1239 0.0019423 0.00315325 0.00149067
1912 1001 6 40.1669 9.08572 17.2089 -0.0063225 0.0040474 0.000396889
1913 1001 7 40.8772 9.8138 17.7691 0.0017242 0.000172437 -0.0047691
1914 1001 6 41.8075 9.85616 18.4608 -0.0014684 -0.00542958 -0.000132042
1915 1002 6 69.9057 48.037 3.53189 -0.00236223 -0.00065759 0.00171764
1916 1002 7 68.9853 48.7171 3.7211 0.00273842 0.00645081 0.000979634
1917 1002 6 67.9448 49.2295 3.73266 0.0027615 0.00628192 0.0105449
1918 1003 6 61.0606 32.955 2.82097 0.00767097 -0.00528958 -0.000643673
1919 1003 7 61.5296 34.0152 2.85873 0.00495697 -0.00424313 0.00368341
1920 1003 6 61.283 35.0003 2.29568 0.00408527 -0.00323926 0.00582158
1921 1004 6 29.1616 42.2776 11.1457 0.00259573 -0.000322606 -5.12927e-06
1922 1004 7 83.5821 41.6014 10.7161 0.00192426 5.92014e-05 0.000706755
1923 1004 6 83.1625 40.6302 11.1947 0.00137033 0.000657133 0.00143442
1924 1005 6 44.4601 12.2798 18.199 -0.00386286 0.00159959 -0.00896604
1925 1005 7 44.8259 11.1846 18.2923 -0.0142808 -0.000792306 0.00379953
1926 1005 6 44.4042 10.96 17.2347 3.41142e-06 -0.00426935 -0.00115745
1927 1006 6 63.0695 26.0675 6.08201 0.00723039 -0.00307351 0.00165136
1928 1006 7 63.6948 25.924 5.11502 0.00130388 0.000444494 -0.00270309
1929 1006 6 63.687 25.1268 4.27086 0.0020375 -0.00135204 -0.00101328
1930 1007 6 78.2773 24.1168 26.545 -0.00235765 0.00322651 -0.00303024
1931 1007 7 79.165 24.8569 26.6392 0.000774542 -0.000888817 -0.000216184
1932 1007 6 79.009 25.7631 27.3485 0.00311274 -0.000730625 9.61632e-05
1933 1008 6 48.9406 32.1433 16.6325 7.092e-05 0.00560248 0.000495534
1934 1008 7 47.8811 32.5956 16.4995 -0.0014101 0.000502887 -0.00504747
1935 1008 6 47.042 33.2679 16.0603 -0.000510566 0.00241504 -0.00383909
1936 1009 6 45.5253 30.5411 17.4926 -0.00587527 -0.00421406 0.00126892
1937 1009 7 45.3375 31.1043 18.4893 -0.00603335 -0.00316249 0.000644947
1938 1009 6 46.3528 31.659 18.588 -0.00594437 -0.00327519 0.000363035
1939 1010 6 29.8716 43.7859 4.37421 0.000130327 -0.00110251 0.00645966
1940 1010 7 30.2414 44.6505 5.05366 -0.00404098 0.00232992 0.0043624
1941 1010 6 30.8029 44.9587 6.02082 -0.000462232 0.00757762 0.000612729
1942 1011 6 76.7068 47.2321 10.4227 -0.000945898 -0.00214371 -0.000391459
1943 1011 7 76.877 48.1219 11.1471 -0.00160524 0.000622866 -0.00363447
1944 1011 6 77.3862 48.8119 11.929 -0.00567662 -0.000439183 -4.55397e-05
1945 1012 6 20.6277 28.0039 0.202956 0.00151007 -0.00302638 0.000105845
1946 1012 7 20.0799 27.7338 1.18903 0.000716197 0.00148284 0.000900234
1947 1012 6 19.4314 26.9382 1.7298 -0.00807319 0.00844702 0.000605383
1948 1013 6 51.0646 34.9357 2.92307 0.00118282 0.00390221 -0.00356852
1949 1013 7 50.1624 34.6042 2.27203 -0.00422656 0.00144962 0.00517619
1950 1013 6 49.7229 33.5738 1.96709 -0.0023128 0.000214577 0.00659089
1951 1014 6 67.3566 42.3415 15.897 0.00348034 -0.00344144 0.00255704
1952 1014 7 67.2238 42.1043 14.7696 0.00165721 0.00334777 0.00134343
1953 1014 6 67.5923 41.7314 13.7347 -0.00239506 0.00206082 0.000364245
1954 1015 6 61.0419 32.6097 11.0843 -0.00220539 -0.000443425 -0.0060475
1955 1015 7 60.0554 32.4289 11.6747 0.00099754 0.000552875 -0.00039157
1956 1015 6 59.8088 33.393 12.274 0.00346902 0.00207639 -0.00182555
1957 1016 6 57.5685 23.9421 10.1323 0.00292767 0.00466941 0.0013221
1958 1016 7 56.4729 23.9479 10.516 0.00165459 0.00210825 -0.00227408
1959 1016 6 55.5731 23.2345 10.3487 0.00348269 0.000758014 -0.00634857
1960 1017 6 40.6356 44.1521 9.01453 -0.00375754 0.00142318 0.00490139
1961 1017 7 40.2852 45.0356 8.34962 -0.00310457 -0.00366867 -0.0022085
1962 1017 6 39.7861 45.8963 7.75276 0.00104599 0.00149698 0.00176968
1963 1018 6 54.8667 26.9247 11.8198 0.00431265 0.00784838 -0.0040409
1964 1018 7 53.7078 26.9419 11.7741 0.00416477 0.00116721 -0.00281515
1965 1018 6 52.5919 26.7691 12.0464 0.00542714 -0.00274047 -0.000121459
ITEM: TIMESTEP
10000
ITEM: NUMBER OF ATOMS
57
ITEM: BOX BOUNDS xy xz yz pp pp pp
0.0000000000000000e+00 1.0131084100000001e+02 2.7630201000000000e+01
0.0000000000000000e+00 5.8491914999999999e+01 1.8420141000000001e+01
0.0000000000000000e+00 3.0080027000000001e+01 1.0634897000000000e+01
ITEM: ATOMS id mol type x y z vx vy vz
1909 1000 6 55.3058 28.1796 16.0882 0.000547137 -0.00286448 -0.000575698
1910 1000 7 55.533 28.555 15.0135 -0.000121509 0.000671271 0.000517879
1911 1000 6 55.525 28.0285 13.9791 -0.00347049 0.00476519 -0.0015398
1912 1001 6 46.8134 9.40414 19.2049 0.00245746 -0.00496545 0.00415296
1913 1001 7 47.7806 9.64577 19.8005 0.00618798 -0.00142452 -0.00334118
1914 1001 6 48.5073 10.5043 20.0839 0.00301154 0.0020352 -0.00567649
1915 1002 6 52.91 16.1936 29.4569 0.00432835 0.00110049 -0.00761007
1916 1002 7 53.9045 16.6084 29.8864 0.000875315 0.00363912 -0.00206693
1917 1002 6 36.4451 6.57841 0.0439004 0.00129953 0.00248951 -0.000855337
1918 1003 6 62.6855 30.713 5.96972 -0.00260727 -0.000103699 -0.00073786
1919 1003 7 62.4125 30.2694 4.93332 0.00094202 0.00331912 -0.00313768
1920 1003 6 61.5651 30.5115 4.1773 -0.000988257 0.000636156 -0.00183306
1921 1004 6 83.5297 44.0003 15.8021 0.00669995 0.00322094 -0.00230442
1922 1004 7 82.847 43.9314 14.8658 0.00248367 0.00337284 0.000759003
1923 1004 6 83.1603 44.1255 13.7647 -0.000888506 -0.0028867 -0.00130405
1924 1005 6 51.2566 8.55255 17.4288 0.000671683 0.000717512 -0.00145395
1925 1005 7 51.5732 9.44535 18.0956 0.00272496 0.00295329 -0.00542204
1926 1005 6 52.6879 9.18352 17.9064 0.00212208 -0.000552435 -0.00412269
1927 1006 6 64.8218 26.8541 1.55405 -0.00155152 0.00738263 0.00897175
1928 1006 7 63.7395 27.2526 1.42526 -0.0050208 -0.00427564 0.00205024
1929 1006 6 62.8695 27.453 2.16762 -0.00720291 -0.000200554 -0.00160735
1930 1007 6 25.5655 24.5097 25.7919 -0.000394471 0.00256108 -0.00148803
1931 1007 7 25.379 24.799 24.6845 0.000583276 -0.000303636 -0.00240126
1932 1007 6 25.943 25.7359 24.2934 0.000463849 -0.000964733 -0.00415695
1933 1008 6 39.6515 34.1086 13.4301 0.000834472 -0.00126785 -0.000896674
1934 1008 7 40.1272 34.9254 14.102 -0.000252504 -0.0020045 0.00076872
1935 1008 6 40.1848 35.8685 14.7774 -0.000547981 4.69243e-06 -0.0020118
1936 1009 6 46.5626 30.6317 14.9794 -0.00104864 -0.00220237 -0.00204012
1937 1009 7 45.7866 29.8229 14.6805 0.0045148 -0.00592403 -0.0064107
1938 1009 6 45.5743 30.1579 13.5892 0.00214737 -0.00143796 -0.00457266
1939 1010 6 76.1069 40.9882 8.03483 0.000681221 -0.0016015 0.00252957
1940 1010 7 76.9355 40.5822 8.73802 0.00209634 -0.00213625 0.000553356
1941 1010 6 78.0582 40.325 8.87518 0.00255087 -0.00127678 -0.00155561
1942 1011 6 78.1589 49.147 13.8411 0.00161606 -0.00312373 -0.00166772
1943 1011 7 78.608 49.8438 13.03 -0.00417225 1.57614e-05 -0.00217609
1944 1011 6 79.0621 50.7878 12.5303 0.000195239 -0.000784903 0.000280691
1945 1012 6 71.837 31.1206 3.94811 0.00625662 0.00199316 -0.000293386
1946 1012 7 72.3101 31.5604 4.91153 0.00361926 0.00192719 0.00103192
1947 1012 6 72.5622 32.535 5.48817 -0.0030599 0.00166461 0.0043954
1948 1013 6 71.6673 47.8471 29.9627 0.00200782 -0.00424175 0.000531003
1949 1013 7 71.4186 47.2834 28.9789 -0.000762746 -0.00379834 0.000977489
1950 1013 6 71.1626 47.6213 27.898 -0.000816696 -0.00336539 0.00112561
1951 1014 6 66.6471 42.9991 16.0386 0.000913394 -0.00174518 0.00478282
1952 1014 7 67.3185 42.0542 16.003 0.00272599 -0.000461067 0.0048843
1953 1014 6 68.2769 41.4696 15.7103 0.00411941 0.0015185 0.00549266
1954 1015 6 61.3317 31.653 11.1434 -0.00711261 -0.00397299 0.00587894
1955 1015 7 60.3301 32.1907 10.8942 -0.00231672 0.00281254 0.00124735
1956 1015 6 60.2664 33.1562 11.5372 0.00301897 0.00523464 -0.00186019
1957 1016 6 63.5248 12.8419 4.94837 -0.003438 -0.00179943 -0.000539284
1958 1016 7 63.083 11.7718 4.86242 -0.0052314 -0.00159512 0.00613546
1959 1016 6 62.0758 11.3628 4.45651 0.00202197 -0.00428352 -0.00915422
1960 1017 6 43.0595 49.8459 13.0321 -0.00429935 -0.00604937 -0.00417974
1961 1017 7 42.2223 50.4413 12.4936 -0.00162033 -0.000191507 -0.00186887
1962 1017 6 41.4882 51.0427 11.8262 -0.00191863 -0.000984311 -0.0022552
1963 1018 6 53.7225 24.4225 14.1416 -0.00228287 0.00173448 0.00108725
1964 1018 7 54.4662 24.4163 13.2515 0.00057131 0.000810164 0.00347835
1965 1018 6 54.9288 24.5955 12.2012 0.00143253 -0.00585511 0.0027203
ITEM: TIMESTEP
15000
ITEM: NUMBER OF ATOMS
57
ITEM: BOX BOUNDS xy xz yz pp pp pp
0.0000000000000000e+00 1.0131084100000001e+02 2.7630201000000000e+01
0.0000000000000000e+00 5.8491914999999999e+01 1.8420141000000001e+01
0.0000000000000000e+00 3.0080027000000001e+01 1.0634897000000000e+01
ITEM: ATOMS id mol type x y z vx vy vz
1909 1000 6 54.2598 27.2345 12.1069 0.00101098 0.00270786 0.00155384
1910 1000 7 55.357 27.0112 11.8008 0.000227345 0.00416404 -0.00231599
1911 1000 6 56.3565 27.5679 11.9967 0.000562842 0.00391493 -0.00331934
1912 1001 6 46.9059 11.3466 11.7886 -0.00246178 -0.00183187 0.000462586
1913 1001 7 47.0733 10.2999 12.2629 0.00161028 -0.00231936 -0.00205073
1914 1001 6 47.6882 9.73076 13.0651 -0.00476173 0.000516841 0.00484517
1915 1002 6 64.1175 21.0367 29.107 -0.00293588 -0.000775331 0.00754099
1916 1002 7 63.8267 20.2596 28.2965 0.000894354 0.000103751 0.00532348
1917 1002 6 63.3582 19.3996 27.6749 0.00230051 0.00220061 0.0013623
1918 1003 6 62.3371 27.5249 2.55358 -0.00472036 0.000998945 0.00675089
1919 1003 7 62.3233 28.6614 2.78506 0.0025132 0.00278068 -0.00156513
1920 1003 6 62.9586 29.3226 3.49753 -0.0026293 0.0017164 0.00400789
1921 1004 6 33.2208 38.8175 8.47604 0.00530626 -0.000782081 -0.000498763
1922 1004 7 33.0517 38.6166 9.60671 0.00363796 -0.00400279 -0.00132063
1923 1004 6 32.7464 37.6071 10.0924 0.00501298 -0.00591336 -0.00442762
1924 1005 6 51.1925 6.12814 15.3702 -0.00029822 -0.00105848 0.00127429
1925 1005 7 52.3027 6.45369 15.4308 -0.000267267 -0.00158321 0.00352612
1926 1005 6 51.9652 7.54046 15.6587 -0.00024667 -0.000414068 -0.00201828
1927 1006 6 44.1063 22.4657 3.86105 -0.000473472 -0.000594338 -0.00420934
1928 1006 7 44.6055 22.297 4.89498 7.96874e-05 -0.0029389 -0.00485887
1929 1006 6 44.4971 21.476 5.70884 -0.00882555 0.00201986 -0.00104294
1930 1007 6 85.0938 32.8785 27.5237 -0.00114151 -0.000988029 -0.00175007
1931 1007 7 30.7597 32.9976 26.8365 -0.0028284 -0.000692777 -0.00397312
1932 1007 6 30.7364 32.4148 25.8323 -0.00363119 -0.00328567 -0.00244947
1933 1008 6 41.3672 34.2114 11.8009 -0.00343807 0.0013031 0.00272211
1934 1008 7 40.7665 35.0921 12.2576 0.00118165 0.00493043 0.00180427
1935 1008 6 39.8733 35.8139 12.4312 0.00174306 0.00425643 0.00749329
1936 1009 6 41.6726 33.0307 14.5195 -5.73666e-05 -0.00243087 -0.00491305
1937 1009 7 42.0901 32.2715 15.2909 -0.00222513 9.94918e-06 -0.00133743
1938 1009 6 42.0556 32.9323 16.2451 -0.0016192 0.0041613 -0.00419017
1939 1010 6 76.5497 39.1821 18.1525 0.00526242 -0.000911616 0.00179292
1940 1010 7 77.3901 38.6372 18.7378 0.00606437 0.000931953 0.00235793
1941 1010 6 78.5221 38.5693 18.9819 0.0063613 0.00188457 0.00124572
1942 1011 6 80.3067 49.9616 16.9351 -0.00226485 0.0019872 0.000285806
1943 1011 7 79.7233 49.5887 16.0046 0.00147302 0.00628744 -0.00378092
1944 1011 6 78.8939 49.5032 15.1973 0.000613822 0.00444694 -0.00270324
1945 1012 6 72.8343 31.4035 6.56396 -0.00390721 0.00324611 -0.00547823
1946 1012 7 71.7443 31.074 6.34294 -0.00197234 -0.00140361 -0.00808902
1947 1012 6 70.9872 30.1963 6.39225 -0.00323412 0.000506704 0.00654043
1948 1013 6 72.6937 46.9684 26.0819 0.00604687 0.00109681 -0.00374581
1949 1013 7 72.6656 46.0235 26.7557 0.00411079 9.64057e-06 -0.0053514
1950 1013 6 73.4581 45.2389 27.0786 0.00272032 -0.00163523 -0.00593561
1951 1014 6 69.2782 38.6795 11.2878 0.00148249 -0.00336528 -0.00282782
1952 1014 7 69.7083 38.1729 10.3373 -0.00213529 -0.00456833 -0.00382372
1953 1014 6 70.1308 38.1775 9.2569 0.00288809 -0.00489079 -0.0018606
1954 1015 6 58.9072 40.2899 9.21514 0.00314232 0.00193024 -0.00401575
1955 1015 7 59.2098 40.1756 8.0972 0.00610715 0.00247173 -0.00326856
1956 1015 6 58.8268 41.1082 7.52 0.00553567 0.00160805 -0.0042848
1957 1016 6 62.1522 13.0243 5.09189 0.000453172 0.00316041 0.00604448
1958 1016 7 61.1885 13.4772 4.62953 -0.002133 -0.00859379 -7.98891e-05
1959 1016 6 60.1539 13.7563 5.07487 -0.000789993 -0.000422059 -0.00208114
1960 1017 6 13.814 4.67568 10.3788 -0.00326595 0.00148403 -0.00209073
1961 1017 7 12.6861 4.50905 10.1651 -0.00353669 -9.34913e-05 0.000568026
1962 1017 6 11.5341 4.48569 10.0298 -0.00311835 0.00205471 -0.00336564
1963 1018 6 56.1498 24.3472 11.2959 0.00405007 -0.000499562 -0.00373998
1964 1018 7 56.0802 23.3213 11.8327 0.00226674 0.000280607 -0.00248035
1965 1018 6 56.332 22.4158 12.5153 0.00114246 0.000297247 -0.00204353
ITEM: TIMESTEP
20000
ITEM: NUMBER OF ATOMS
57
ITEM: BOX BOUNDS xy xz yz pp pp pp
0.0000000000000000e+00 1.0131084100000001e+02 2.7630201000000000e+01
0.0000000000000000e+00 5.8491914999999999e+01 1.8420141000000001e+01
0.0000000000000000e+00 3.0080027000000001e+01 1.0634897000000000e+01
ITEM: ATOMS id mol type x y z vx vy vz
1909 1000 6 52.0643 26.524 11.6573 0.00158681 -0.000165184 -0.00312548
1910 1000 7 53.2157 26.426 11.7674 0.00157692 0.00165574 -0.00139932
1911 1000 6 54.0643 26.2268 11.0009 0.00233 -0.00415232 0.000944224
1912 1001 6 49.6801 10.9407 18.926 -0.00394468 0.00134468 0.00169743
1913 1001 7 50.1097 10.6683 17.8821 -0.00147724 -0.000489073 0.00319135
1914 1001 6 50.1205 9.84142 17.0685 -0.00169263 -0.000790995 0.00349537
1915 1002 6 65.6509 20.3306 28.2862 -0.000985677 -0.000601455 -0.00341768
1916 1002 7 66.3098 20.8348 29.0968 -0.000187579 -0.00435158 -0.00173382
1917 1002 6 66.7915 21.2226 30.0781 -0.00816351 0.00380433 -0.00104185
1918 1003 6 61.4196 34.5625 0.385928 -0.00396065 0.00306542 0.000131059
1919 1003 7 79.8624 45.2216 29.3065 -0.00211021 -0.000836936 8.55648e-05
1920 1003 6 79.3078 45.8794 28.5267 0.00337256 0.000303257 -0.00285185
1921 1004 6 81.8644 39.6259 21.0909 -0.00124583 0.00341123 -0.00375189
1922 1004 7 82.7609 38.9011 21.2262 -0.000174777 0.00641181 0.00523162
1923 1004 6 83.8218 39.0193 20.7692 -0.000192099 0.00259151 0.00420335
1924 1005 6 49.8367 7.44144 19.6296 0.000288536 -9.47918e-05 0.00332567
1925 1005 7 77.7135 54.193 19.8728 -0.00701172 -0.00301582 -0.00254965
1926 1005 6 78.5503 54.2091 19.0687 -0.00177292 -0.00193781 0.00292345
1927 1006 6 39.8086 12.492 -0.227742 0.00357173 -0.00191159 -0.0013215
1928 1006 7 40.6447 13.1406 0.248622 -0.00317221 0.00955977 -0.00510323
1929 1006 6 41.5579 13.7105 -0.18662 0.00572405 -0.0048666 -0.00532516
1930 1007 6 29.986 26.055 24.095 0.00506032 0.000201487 -0.00347637
1931 1007 7 29.8406 27.0494 24.6737 -0.00456198 -0.00111501 -0.00363176
1932 1007 6 30.4122 27.9737 24.2641 -0.00456855 0.00177917 0.00289015
1933 1008 6 39.6703 38.1298 9.81715 0.00191228 0.00244046 0.00149639
1934 1008 7 39.8071 37.3403 10.6555 0.00363323 0.00169149 0.000510247
1935 1008 6 40.2712 36.8249 11.5872 0.00288375 0.00315446 0.00169296
1936 1009 6 33.9345 34.6475 15.5339 -0.00611706 0.00327082 -0.00480865
1937 1009 7 34.2074 33.7726 14.8227 -0.00428998 6.69374e-05 -0.000166487
1938 1009 6 33.4538 33.9835 13.9649 0.00227248 -7.00493e-05 -0.00596497
1939 1010 6 28.0354 32.4454 18.8084 -0.000507313 0.0045203 0.00145733
1940 1010 7 27.1564 33.0956 19.196 -0.00222508 0.00130989 0.00294723
1941 1010 6 82.0594 34.1407 19.5504 -0.00505078 -0.000382113 0.00508679
1942 1011 6 78.344 51.2024 16.5382 0.00273128 0.00582989 0.00246133
1943 1011 7 78.8764 51.2073 17.5686 0.00387169 -0.00669772 0.00193122
1944 1011 6 79.0298 51.2219 18.7189 0.00546347 -0.00536246 0.00170205
1945 1012 6 35.9342 37.3476 27.589 -0.00399435 -0.00105 -0.000360454
1946 1012 7 35.803 36.2105 27.7765 0.00153084 -0.00199358 -0.00221825
1947 1012 6 36.3204 35.2423 28.1518 0.00432417 0.00104586 0.00177195
1948 1013 6 63.3536 29.2445 3.403 0.00417617 -0.00228906 -0.00388066
1949 1013 7 63.1906 28.1042 3.54694 -0.000502518 -0.00101745 0.000895021
1950 1013 6 62.2884 27.3914 3.38569 -0.00055177 0.000441575 -0.0052785
1951 1014 6 69.9049 33.8333 14.2923 -0.000713091 0.00910905 -0.00127456
1952 1014 7 70.7011 33.3526 14.9851 0.0024919 0.00741732 -0.00613225
1953 1014 6 71.4726 33.3694 15.8513 0.000824042 0.00324246 -0.00456589
1954 1015 6 56.7994 37.4573 5.23966 0.00085848 0.00190449 0.00226355
1955 1015 7 56.6417 38.4395 5.84359 -0.00218444 0.0021983 0.000991091
1956 1015 6 57.4402 39.2099 5.4992 -0.00312377 0.00345502 0.00162445
1957 1016 6 77.6483 24.8071 28.7449 0.00234039 -0.0027609 0.0042675
1958 1016 7 77.2448 24.5303 27.6922 0.00769765 0.00248155 0.000836045
1959 1016 6 77.54 23.7138 26.9221 0.00312394 -0.00184846 0.00367372
1960 1017 6 10.4904 4.01037 8.79825 0.000441631 0.00222777 -0.00149334
1961 1017 7 9.63931 4.63495 8.31769 -0.000966696 1.36542e-05 -0.00187671
1962 1017 6 8.90792 5.3591 7.78225 -0.00266376 -0.00147108 -0.00156663
1963 1018 6 53.5314 26.7137 14.3447 -0.0049324 -0.00260854 0.000371219
1964 1018 7 53.813 27.1177 15.3948 -0.00510351 -0.00432671 0.00107822
1965 1018 6 54.4172 27.3561 16.3579 -0.000216123 0.00729599 -0.00486461
ITEM: TIMESTEP
25000
ITEM: NUMBER OF ATOMS
57
ITEM: BOX BOUNDS xy xz yz pp pp pp
0.0000000000000000e+00 1.0131084100000001e+02 2.7630201000000000e+01
0.0000000000000000e+00 5.8491914999999999e+01 1.8420141000000001e+01
0.0000000000000000e+00 3.0080027000000001e+01 1.0634897000000000e+01
ITEM: ATOMS id mol type x y z vx vy vz
1909 1000 6 51.0118 26.9976 10.7333 -0.0018846 0.00248333 0.00322066
1910 1000 7 52.0245 27.4837 11.0258 0.000290616 0.000413327 -0.000870377
1911 1000 6 52.9285 27.1035 11.6468 -0.00433967 0.00417834 0.00817562
1912 1001 6 79.4093 52.1722 13.396 -0.00198443 0.000637405 0.000233601
1913 1001 7 78.5384 51.5169 13.7969 0.00102171 -0.00337887 0.000199974
1914 1001 6 77.674 51.4919 14.5701 -0.00304663 -0.00462932 -0.00438824
1915 1002 6 48.0326 17.0375 3.54363 -0.00416331 0.00249838 0.0053493
1916 1002 7 47.1742 16.2754 3.37711 -0.00672854 0.00663803 -0.000372191
1917 1002 6 46.4442 15.4688 2.97467 0.00404548 -0.00540278 0.00421557
1918 1003 6 79.9659 39.8416 29.2985 0.00280713 9.52913e-05 0.00361801
1919 1003 7 80.044 39.2682 30.3038 -0.00553352 0.00104338 0.00480663
1920 1003 6 61.0051 27.7618 0.677495 -0.00896695 0.00111783 0.00026746
1921 1004 6 78.2214 40.1901 18.1361 -0.00269141 -0.00350833 -0.000162953
1922 1004 7 78.0333 39.5568 17.1817 -0.00193859 -0.00305277 -0.000613619
1923 1004 6 77.1383 38.8422 16.9903 -0.00390083 0.0001213 -0.00328947
1924 1005 6 50.9129 6.59931 15.5634 0.00145359 -0.00399596 -0.00209675
1925 1005 7 51.7607 6.60895 14.774 0.00187113 0.00144288 -0.00158187
1926 1005 6 52.0555 7.67915 15.1127 -0.00333814 0.00219287 0.000582934
1927 1006 6 65.8195 30.2341 26.0544 0.00282285 0.00175924 0.00279239
1928 1006 7 65.6282 31.2902 26.4954 -0.00159914 0.00226084 -0.000326344
1929 1006 6 66.3278 32.1608 26.8132 -0.00512204 0.00519652 -0.000613582
1930 1007 6 68.0041 20.997 1.86283 -0.00440266 -0.00775472 0.00463047
1931 1007 7 67.8108 21.2675 0.751862 0.00323922 0.00230657 0.00575051
1932 1007 6 66.7042 21.4475 0.449019 0.00538323 0.00565312 -9.49169e-05
1933 1008 6 40.0397 37.0737 10.8807 -0.000132322 0.00462917 -0.000807337
1934 1008 7 38.9446 37.4484 10.8082 0.0013212 0.00819206 -0.00434909
1935 1008 6 37.9044 37.6569 10.3354 -0.00232818 -0.00441175 -0.00187747
1936 1009 6 34.3478 38.9003 10.2783 -0.0021044 0.00159598 -0.00195186
1937 1009 7 33.7975 38.0378 10.8251 0.00413902 -0.00106352 0.000136022
1938 1009 6 34.1043 38.28 11.9185 0.00247723 0.0037383 -0.000461576
1939 1010 6 80.9965 34.5242 19.7746 -9.00382e-05 -0.0038841 -0.00338192
1940 1010 7 81.8663 35.185 20.1652 -0.0010429 -0.00318948 -0.00243507
1941 1010 6 82.484 35.5434 21.0793 -0.00681224 0.00266037 -0.000829834
1942 1011 6 79.7636 54.7432 26.1412 -0.00378814 -0.00140839 0.0032637
1943 1011 7 79.0454 54.7869 27.0509 -0.00354739 0.00549899 0.00312149
1944 1011 6 78.6761 54.8636 28.1485 -0.00299908 0.00845671 0.00309939
1945 1012 6 74.0327 29.8783 5.7822 0.00617766 -0.00373366 -0.000403873
1946 1012 7 74.926 30.6178 5.75455 0.00504013 -0.00238944 -0.00120446
1947 1012 6 20.6382 30.955 6.28943 -0.00186364 0.00764547 0.0050216
1948 1013 6 66.2016 26.9132 5.99788 0.00290075 0.00960937 0.000114413
1949 1013 7 66.1549 26.818 7.1539 0.000313581 -2.8271e-06 -0.000780989
1950 1013 6 65.3079 26.9335 7.93945 -0.000603848 -0.00272865 -0.00136966
1951 1014 6 71.5969 33.6075 19.0839 -0.000157796 -0.000197803 0.00442556
1952 1014 7 72.3953 33.9925 19.8317 0.00228629 0.00346108 -6.71176e-05
1953 1014 6 72.7387 34.4971 20.8183 0.00555843 -0.00213874 0.00165769
1954 1015 6 62.7985 43.2707 17.1387 0.0045593 0.0019516 -0.00231649
1955 1015 7 63.445 42.6139 17.8494 0.000206187 -0.000252305 -0.00039297
1956 1015 6 64.3985 43.2144 18.1319 -0.000283883 -0.00213113 0.00525484
1957 1016 6 29.7786 22.1311 28.7934 0.00132511 0.0075243 0.000633849
1958 1016 7 29.837 21.1852 29.464 -0.00154595 0.00638688 -0.000720494
1959 1016 6 11.5199 10.399 0.529847 0.0019046 0.00442501 -0.00128974
1960 1017 6 60.1694 7.60985 7.80556 -0.00233256 0.000167853 0.00460637
1961 1017 7 61.2304 7.36605 8.20584 -0.000629499 0.00207028 0.00125079
1962 1017 6 62.2929 7.27717 8.66324 -0.000922862 0.00247416 0.00201073
1963 1018 6 55.3062 23.0167 9.52926 -0.0100449 0.000666103 -0.00351465
1964 1018 7 55.3601 22.1327 8.78031 -0.00249125 -0.000315965 -0.00181096
1965 1018 6 55.0898 21.1659 8.19579 0.00424356 -0.00203024 -0.00209043
ITEM: TIMESTEP
30000
ITEM: NUMBER OF ATOMS
57
ITEM: BOX BOUNDS xy xz yz pp pp pp
0.0000000000000000e+00 1.0131084100000001e+02 2.7630201000000000e+01
0.0000000000000000e+00 5.8491914999999999e+01 1.8420141000000001e+01
0.0000000000000000e+00 3.0080027000000001e+01 1.0634897000000000e+01
ITEM: ATOMS id mol type x y z vx vy vz
1909 1000 6 52.1737 26.7988 10.8159 -0.00467763 0.00195566 0.00343197
1910 1000 7 52.9472 27.097 11.6283 -0.00107412 0.0030276 -0.000392396
1911 1000 6 53.5713 26.4761 12.3849 -0.00144186 0.00442509 0.00105764
1912 1001 6 78.3996 50.8996 20.5871 0.000253835 0.00253139 0.00788458
1913 1001 7 79.1467 50.0331 20.388 0.000380601 0.00350398 0.00412634
1914 1001 6 79.551 49.0364 20.8226 0.000616884 0.00174216 -0.000134598
1915 1002 6 48.1821 10.4498 3.53504 0.00128715 -0.00397579 -0.000692295
1916 1002 7 48.6075 11.0208 2.61942 0.000152545 -0.00338804 -0.000852873
1917 1002 6 48.9546 11.3688 1.56879 0.00791811 -0.00687554 0.000557503
1918 1003 6 74.5298 35.8425 29.5419 0.00286268 -0.00124946 0.00293498
1919 1003 7 73.4054 35.7455 29.8099 0.00183424 -0.00346613 -0.00218275
1920 1003 6 72.5029 36.4624 29.6691 0.0030495 -0.000788271 0.00366426
1921 1004 6 76.4407 36.9513 19.5343 0.00149137 -0.00742016 -0.0025042
1922 1004 7 76.8295 37.4075 18.5403 0.00714072 0.000993968 0.00356705
1923 1004 6 76.5389 38.4381 18.0911 -0.0022482 -0.00195859 0.00286742
1924 1005 6 80.4303 49.266 17.6619 0.00368274 -0.00113065 -0.000580888
1925 1005 7 80.1257 48.8625 16.6196 -0.000410256 -0.0031752 0.00140692
1926 1005 6 79.1592 49.5038 16.6606 0.00205543 0.000510872 0.00187458
1927 1006 6 66.4549 31.8534 28.5485 -0.000883267 -0.00543294 -0.00286578
1928 1006 7 65.3783 31.7059 28.1413 -0.00225399 0.0013995 -0.00171731
1929 1006 6 64.4821 32.4254 27.9765 -0.000472548 0.00554599 0.00669644
1930 1007 6 12.538 18.058 4.3575 0.00241377 0.00662961 0.00118759
1931 1007 7 66.9822 18.8771 4.27112 -0.0044507 -0.000732762 -0.00376
1932 1007 6 67.1415 19.6803 3.44762 -0.00541823 0.00216156 -0.00112412
1933 1008 6 39.8964 35.3775 17.7476 0.00297751 -0.000444337 0.00280547
1934 1008 7 40.3661 34.4173 18.1974 0.00142976 -0.00166377 0.00181884
1935 1008 6 41.1694 33.6052 18.4072 0.00106398 -0.00166193 0.00322694
1936 1009 6 33.1137 36.7671 11.1675 0.00630301 -0.000979754 -0.00111197
1937 1009 7 33.4727 35.6862 11.3881 -0.00144469 -0.00429292 -0.00473944
1938 1009 6 32.486 35.2406 11.8078 -0.0023352 0.00375679 0.00171196
1939 1010 6 28.5309 32.3595 16.7284 0.00211485 -0.00404633 -0.00393725
1940 1010 7 28.3705 31.3126 17.2018 0.00336694 -0.00415624 -0.00375629
1941 1010 6 27.6423 30.5861 17.738 0.00606937 -0.00275198 0.00181682
1942 1011 6 59.4317 17.414 25.613 -0.00308388 -0.00240805 0.00355783
1943 1011 7 58.4012 17.017 25.9675 -0.0025654 -0.0062094 0.000807724
1944 1011 6 57.606 16.4484 26.5931 -0.00163371 -0.0130475 -0.00422285
1945 1012 6 73.3428 28.8097 4.83997 0.00137864 0.000559739 0.00205365
1946 1012 7 72.7587 29.496 5.57031 0.00266242 0.00386353 -2.40225e-05
1947 1012 6 72.0117 30.3797 5.6534 -0.00445672 -0.00189871 -0.00275095
1948 1013 6 71.5755 39.147 4.99997 -0.00160525 0.00450441 0.00788067
1949 1013 7 71.5717 38.4156 5.90142 -0.0102634 -0.00431366 0.000688893
1950 1013 6 72.2921 37.5817 6.26694 -0.00888151 -0.00131452 0.00480709
1951 1014 6 80.2669 41.3153 11.5862 0.00655337 0.00153428 -0.00159039
1952 1014 7 80.4555 40.926 12.6622 -0.00170295 -0.00031574 -0.000812587
1953 1014 6 80.4022 40.9985 13.8188 0.00156533 0.00402848 -0.000934207
1954 1015 6 70.63 35.1027 22.3048 0.00146377 -0.000137534 -0.00157913
1955 1015 7 71.7533 34.8514 22.1333 0.00336782 0.00142068 0.00861247
1956 1015 6 72.2546 35.7628 21.6159 0.00449691 -0.00186449 0.00391958
1957 1016 6 59.6896 11.8809 0.374353 -0.000748958 0.00441181 0.00238921
1958 1016 7 60.574 11.1703 0.620469 0.0053874 0.00977682 -0.00417225
1959 1016 6 61.3662 11.1587 1.46835 0.00199551 0.00555662 -0.00106107
1960 1017 6 12.3759 8.85717 9.5471 0.000498734 0.000145442 0.00475767
1961 1017 7 11.9125 7.88385 9.11899 -0.0013472 0.000734395 0.00541703
1962 1017 6 11.3319 7.00799 8.62719 -0.000441249 0.00201206 0.00207222
1963 1018 6 57.3047 22.9686 8.71499 -0.00157519 0.00355393 -0.00374465
1964 1018 7 58.3365 23.4625 8.52251 0.00216173 -0.00220359 0.00151353
1965 1018 6 59.4064 23.6553 8.11335 0.00138337 -0.00301118 -0.000902323
ITEM: TIMESTEP
35000
ITEM: NUMBER OF ATOMS
57
ITEM: BOX BOUNDS xy xz yz pp pp pp
0.0000000000000000e+00 1.0131084100000001e+02 2.7630201000000000e+01
0.0000000000000000e+00 5.8491914999999999e+01 1.8420141000000001e+01
0.0000000000000000e+00 3.0080027000000001e+01 1.0634897000000000e+01
ITEM: ATOMS id mol type x y z vx vy vz
1909 1000 6 55.2685 27.3668 12.6296 0.0053442 0.00186868 0.000563267
1910 1000 7 54.8271 26.4453 12.0788 0.0024408 0.00173597 0.00311202
1911 1000 6 54.2324 26.3321 11.0885 0.00162747 0.000929333 0.00369257
1912 1001 6 50.9121 9.35727 15.7892 -0.000907279 -0.00239684 -0.000472935
1913 1001 7 51.4021 9.34101 16.8419 -9.56038e-06 -0.003521 -0.000908181
1914 1001 6 51.2806 8.92295 17.9172 -0.00130876 -0.0012358 -0.000166423
1915 1002 6 60.2266 22.6496 27.2909 0.00181676 0.00487929 0.00396098
1916 1002 7 61.2418 22.1837 27.6038 0.006418 0.00931833 -0.00435991
1917 1002 6 62.181 21.5185 27.7476 0.000410914 0.00285137 0.00495467
1918 1003 6 59.2147 34.6575 3.5409 -4.95077e-05 0.00511598 -0.00385036
1919 1003 7 58.9565 33.7552 4.22247 0.00294964 0.00520685 -0.00259376
1920 1003 6 58.047 33.0341 4.25472 0.00770313 -0.000888719 -0.00482372
1921 1004 6 77.6372 37.3008 11.484 0.00569452 -0.00358335 0.0019542
1922 1004 7 77.6211 38.3098 12.0576 2.67844e-06 -0.00278757 0.000394901
1923 1004 6 76.6843 38.9477 12.3104 -0.00312942 -0.00543861 -0.00452306
1924 1005 6 78.5156 50.168 15.159 0.00227164 0.00137151 -0.000721833
1925 1005 7 79.455 49.4922 15.1055 -0.00385535 -0.00656155 -0.00808863
1926 1005 6 79.0503 48.8695 15.9973 0.00117927 0.00109085 -0.000459831
1927 1006 6 64.7823 33.2713 28.547 -0.00469896 -0.00126952 0.00216023
1928 1006 7 63.9052 33.053 27.8192 -0.000423662 0.00445436 -0.00470882
1929 1006 6 63.8474 32.5924 26.7549 0.00415587 -0.00167107 -0.0023067
1930 1007 6 62.942 12.946 5.11098 0.00349055 0.00232204 0.00147668
1931 1007 7 62.3129 13.5698 5.85931 3.36704e-05 0.00569965 -0.00424447
1932 1007 6 62.7002 14.6391 6.09409 0.00226347 0.00454127 -0.00264699
1933 1008 6 44.414 31.9269 17.01 -0.00395804 -0.00534728 0.00723422
1934 1008 7 45.4304 31.5252 16.6221 -0.00397726 0.00120727 0.000397276
1935 1008 6 46.5717 31.3099 16.6091 -0.00350045 0.00404611 -0.0047579
1936 1009 6 28.5816 31.4719 11.4414 0.00226916 -0.003538 -0.00111313
1937 1009 7 28.6105 31.7011 10.3046 -0.00148873 0.00614425 0.000742948
1938 1009 6 27.4758 31.8561 10.1134 -0.00314229 -0.0022251 0.00377269
1939 1010 6 28.0629 30.7823 14.4978 -0.000724708 0.000786225 -0.000489392
1940 1010 7 27.5177 30.3214 15.4122 0.00222847 -0.00491272 -0.00160151
1941 1010 6 27.3759 30.3191 16.5635 -0.00861908 0.00163548 -0.00292404
1942 1011 6 64.2597 41.5262 2.51089 0.00342602 -0.00390569 0.0117628
1943 1011 7 63.754 42.4172 3.05458 -0.000691239 -0.00155321 0.00407788
1944 1011 6 63.0182 43.0108 3.72772 0.000106192 9.01105e-05 0.00350039
1945 1012 6 72.4728 34.091 5.09277 -0.00661974 0.00282174 -0.000844571
1946 1012 7 72.1669 34.8729 4.29244 -0.000532592 0.00389626 -0.002121
1947 1012 6 71.6849 35.913 4.11404 -0.00309495 0.00226244 -0.00472316
1948 1013 6 52.5932 11.1662 29.2356 -0.00363877 -0.00114641 0.00602048
1949 1013 7 52.0518 12.0206 29.8054 0.000670148 0.00231238 0.00492862
1950 1013 6 32.7658 1.41792 0.498102 -0.00866167 0.00877617 -0.00579743
1951 1014 6 83.1896 43.7199 16.8184 -1.39174e-05 0.00326225 0.00667236
1952 1014 7 84.2836 43.3366 16.8524 0.00120911 0.0066684 0.00572643
1953 1014 6 85.1641 42.7442 17.3211 0.000680628 0.00100268 -0.000441457
1954 1015 6 69.2903 29.1032 1.48841 0.00102202 0.00371905 -0.00521699
1955 1015 7 68.6771 29.464 0.567415 -0.00026658 0.00250379 -0.00483529
1956 1015 6 68.2737 28.528 0.0101483 0.00386789 0.00163036 -0.0063614
1957 1016 6 78.1464 26.3718 26.2603 -0.000130514 0.00406663 -0.00644386
1958 1016 7 77.1133 25.8518 26.3602 0.00135445 0.00316605 0.0042273
1959 1016 6 76.7927 24.7892 26.6988 0.00625251 0.000732284 0.00122686
1960 1017 6 13.299 7.89793 13.4595 0.00259122 -0.00266203 -0.000414144
1961 1017 7 12.4871 8.16626 12.6758 0.00215487 -0.00176285 0.000345834
1962 1017 6 11.7641 8.57073 11.8636 -0.00116779 0.00186211 0.0051086
1963 1018 6 56.5824 21.1234 8.40188 0.00178702 0.00349223 0.00139107
1964 1018 7 57.6084 20.9975 8.92809 0.000874978 -0.0015844 0.00195419
1965 1018 6 58.4172 20.8995 9.75612 0.0013052 0.0054198 0.00236253
ITEM: TIMESTEP
40000
ITEM: NUMBER OF ATOMS
57
ITEM: BOX BOUNDS xy xz yz pp pp pp
0.0000000000000000e+00 1.0131084100000001e+02 2.7630201000000000e+01
0.0000000000000000e+00 5.8491914999999999e+01 1.8420141000000001e+01
0.0000000000000000e+00 3.0080027000000001e+01 1.0634897000000000e+01
ITEM: ATOMS id mol type x y z vx vy vz
1909 1000 6 55.3109 28.1963 15.7111 0.00144137 0.00184674 0.000421486
1910 1000 7 55.129 29.0981 16.4189 -0.00221271 0.00190783 -0.000595122
1911 1000 6 54.5417 29.2105 17.4137 -0.00768469 0.00209021 -0.00384615
1912 1001 6 51.8546 9.12142 14.7141 0.00205753 0.000418664 -0.00115744
1913 1001 7 51.768 9.11672 15.8722 -0.00297122 -0.00244191 -0.00154513
1914 1001 6 52.3888 9.05595 16.8502 -0.00649967 0.00392667 0.00108986
1915 1002 6 35.5981 11.2446 3.92501 0.0004584 0.00124773 -0.00577231
1916 1002 7 35.5403 12.4004 3.84619 -0.000438527 0.00167696 0.00117984
1917 1002 6 35.2213 13.5155 3.83266 -0.00380986 0.000665925 -0.00266128
1918 1003 6 50.9264 35.2553 1.02075 -0.00216763 -0.0108816 3.57408e-05
1919 1003 7 68.9986 46.3228 30.0824 -0.000121846 -0.00333876 0.00254127
1920 1003 6 67.9715 46.3192 29.5406 0.00134788 -0.000700153 -0.000262612
1921 1004 6 77.1647 35.8292 13.2546 -0.000264538 -0.00344182 0.00256762
1922 1004 7 77.7927 34.971 12.7893 0.00197465 0.0029045 -0.00611548
1923 1004 6 77.4336 33.8876 12.5757 0.00946137 -0.000247125 -0.00271651
1924 1005 6 51.3306 6.97288 18.5372 0.00164551 -0.0014632 0.00428155
1925 1005 7 52.4698 6.77651 18.6124 0.00244948 0.0029227 0.00355518
1926 1005 6 79.9004 53.8187 19.4144 0.00590578 0.000299165 0.00174965
1927 1006 6 65.1028 27.7115 23.7682 -0.00134167 -0.00176626 0.00333237
1928 1006 7 64.1114 27.1363 23.5867 -0.00196247 8.35406e-05 0.000861631
1929 1006 6 63.8645 26.0262 23.3527 -0.00354837 0.000271194 0.00164513
1930 1007 6 57.4919 13.1561 5.36853 0.000964281 0.00251759 -0.000716755
1931 1007 7 57.9939 13.8599 4.59565 -0.0040988 -0.00112368 -0.00732152
1932 1007 6 57.6466 14.9681 4.6042 0.00141622 0.000588355 -0.00519896
1933 1008 6 47.2385 35.8256 21.1819 -0.00208288 -0.00612808 0.00533852
1934 1008 7 48.327 35.763 21.5771 0.000487442 -0.000597676 -0.000864547
1935 1008 6 49.4492 35.4651 21.6056 0.000168014 -0.00199517 -0.00288874
1936 1009 6 76.6174 38.4082 11.7709 -0.00460535 0.00294922 0.00218058
1937 1009 7 76.1337 37.3879 11.5048 0.00381854 -0.00173573 0.00483481
1938 1009 6 76.7444 37.1316 10.551 0.00124669 0.00405502 0.00163265
1939 1010 6 26.3909 37.4476 8.903 0.00239777 -0.0015962 -0.00152465
1940 1010 7 25.6217 36.9837 9.63721 0.00381224 0.000950779 0.00156646
1941 1010 6 24.9933 36.0544 9.93239 -0.00579545 0.00634836 -0.0018966
1942 1011 6 76.6679 55.219 27.4549 0.000573008 -0.000950903 0.000708132
1943 1011 7 77.5292 55.7822 27.9899 -0.000647997 0.00154034 5.12217e-05
1944 1011 6 78.4606 55.9761 28.6545 0.00266172 0.00331357 -0.00510419
1945 1012 6 68.2156 30.6079 1.093 0.00267025 0.00130902 -0.00194725
1946 1012 7 67.8472 29.582 1.48966 9.68954e-05 0.00137246 -0.00417294
1947 1012 6 67.9225 28.4311 1.36481 0.00768876 0.00116557 0.00231447
1948 1013 6 83.3894 51.2693 29.7092 -0.0127971 0.00617412 -0.00796237
1949 1013 7 65.0574 41.0354 0.715032 -0.00234014 -0.00184055 -0.00585174
1950 1013 6 64.3702 40.9908 1.6498 0.000965103 0.0024139 -0.00321941
1951 1014 6 71.3191 47.873 28.5473 -0.00322406 -0.000720828 -0.000913086
1952 1014 7 72.2566 47.5754 29.1617 -0.00333491 0.00410058 0.00159115
1953 1014 6 72.9159 47.5697 30.1163 -0.00560069 0.00793513 0.00317917
1954 1015 6 86.6874 38.3486 27.4175 -0.000199253 -0.000771566 0.00325696
1955 1015 7 87.8244 38.1001 27.4139 -0.000699883 -0.00296412 -0.00370968
1956 1015 6 88.3872 38.9815 26.9079 -0.00185809 -0.00296796 -0.00500458
1957 1016 6 58.5156 12.0131 1.02326 -0.00270247 -0.00256846 -0.00412727
1958 1016 7 77.3007 22.7852 30.0098 -0.00138829 0.000234206 -0.00333695
1959 1016 6 77.6437 23.7119 29.4015 0.00109671 0.00150493 -1.36421e-07
1960 1017 6 88.6404 50.6884 19.7883 0.00497116 0.00370006 0.00533221
1961 1017 7 89.3754 49.8246 19.5453 0.000338073 0.000582957 0.00240119
1962 1017 6 89.9969 48.8609 19.3688 -0.0032324 -0.00173421 0.00248031
1963 1018 6 59.0923 23.0068 8.31205 0.00160031 -0.00328462 -0.00348035
1964 1018 7 58.1796 22.3021 8.43714 -0.00387411 0.00461596 0.00107924
1965 1018 6 57.3608 21.6353 8.9211 0.00451037 -0.00375977 0.00372304
ITEM: TIMESTEP
45000
ITEM: NUMBER OF ATOMS
57
ITEM: BOX BOUNDS xy xz yz pp pp pp
0.0000000000000000e+00 1.0131084100000001e+02 2.7630201000000000e+01
0.0000000000000000e+00 5.8491914999999999e+01 1.8420141000000001e+01
0.0000000000000000e+00 3.0080027000000001e+01 1.0634897000000000e+01
ITEM: ATOMS id mol type x y z vx vy vz
1909 1000 6 60.4697 22.9659 11.35 0.00115289 0.00212595 0.00209651
1910 1000 7 60.8687 22.8203 10.2697 -0.00384303 0.0024698 0.000204807
1911 1000 6 61.0184 23.5527 9.38177 -0.00903216 0.00252581 -0.000623318
1912 1001 6 44.3822 9.25248 11.5738 -0.00341181 -0.00346566 -0.00347644
1913 1001 7 45.2397 8.93397 10.8584 -0.00310304 -0.00341706 -0.00312802
1914 1001 6 46.1728 8.25017 10.7728 -0.000859532 -0.000572929 -0.00139085
1915 1002 6 54.7495 27.9406 24.9204 0.00019267 0.000293213 0.00589179
1916 1002 7 53.6155 27.9352 24.677 0.00216965 0.00115453 -0.00333704
1917 1002 6 52.479 28.1512 24.5919 0.000866985 -0.00531602 -0.00236618
1918 1003 6 56.4845 38.8658 4.17914 0.00361658 -0.0025733 -4.11599e-06
1919 1003 7 56.9609 39.2201 5.1756 0.0029459 -0.00105203 -0.000224296
1920 1003 6 57.8623 38.829 5.79444 0.00478061 0.00212337 -0.000889943
1921 1004 6 32.9647 42.8571 10.2241 0.000160663 0.0028298 -0.00023956
1922 1004 7 32.8349 43.6887 9.42482 0.00324107 0.00389469 0.000368344
1923 1004 6 33.2768 44.7618 9.46417 0.00628264 0.00259392 0.00168368
1924 1005 6 50.5681 9.24424 16.8801 0.00091057 0.00144503 -0.00194766
1925 1005 7 51.3077 8.82907 16.091 0.00223602 0.00123217 -0.000593293
1926 1005 6 52.1449 8.8106 16.8945 0.000278778 -0.000741292 0.00140094
1927 1006 6 64.1367 26.349 22.5252 -0.00302887 0.00290219 -0.00290344
1928 1006 7 63.7649 26.6289 23.5883 0.00252148 -0.00345139 0.00071081
1929 1006 6 63.1681 26.0542 24.4018 2.10527e-05 -0.00564297 -0.00267166
1930 1007 6 57.9716 15.8264 3.12449 0.00446582 0.0006475 0.000975062
1931 1007 7 58.8524 15.0724 3.10139 0.000854777 -0.00325362 -0.00939175
1932 1007 6 58.5786 13.9535 3.24842 -0.00177367 -0.00150283 -0.000962809
1933 1008 6 45.3108 36.3179 21.814 -0.00251959 0.00258695 0.00187552
1934 1008 7 44.5162 36.3587 20.9703 -0.00190563 -0.00063995 0.00114125
1935 1008 6 43.8722 35.9925 20.0758 0.000694831 -0.00311682 0.000282725
1936 1009 6 76.4945 33.945 12.2363 -0.00207206 0.00383277 0.00223932
1937 1009 7 76.8517 34.9849 12.6062 0.00369583 0.000315304 0.0065585
1938 1009 6 77.9998 34.8165 12.5654 0.00280878 -0.00485041 0.00290911
1939 1010 6 33.048 36.8788 10.7155 -0.00110157 -0.00497672 0.00257601
1940 1010 7 31.9079 36.9359 10.509 -0.000858464 -0.00227462 0.00198136
1941 1010 6 30.9632 36.4017 10.0993 -0.00127212 0.00126284 -0.00167717
1942 1011 6 58.7107 44.0313 -0.154041 3.69575e-05 0.00558063 -0.00265021
1943 1011 7 57.9706 44.1977 0.723332 -0.000483218 0.00147627 -0.00231049
1944 1011 6 57.336 43.9873 1.67198 0.00152731 -0.00186936 -0.00170738
1945 1012 6 34.1875 37.3 27.5075 0.00505064 0.000863023 0.00590021
1946 1012 7 33.3618 37.2874 28.322 -0.00120512 -0.00398489 -0.000515667
1947 1012 6 87.6143 37.7503 28.662 -0.000133716 -0.000789098 -0.00168959
1948 1013 6 48.9355 12.7461 23.4568 -0.00190241 -0.00336447 -0.000887983
1949 1013 7 48.3756 13.6114 23.991 -0.000114342 -0.000445404 -0.00374217
1950 1013 6 47.7086 13.6769 24.939 0.00395865 0.00493487 -0.00124862
1951 1014 6 79.6886 46.6486 29.9405 0.00286991 -0.00338696 0.00309434
1952 1014 7 80.6507 46.4901 29.3127 0.00316631 -0.00051439 0.00282317
1953 1014 6 81.3953 46.7586 28.4646 -0.00366491 -0.00495459 -0.00457886
1954 1015 6 18.0631 26.2361 0.987272 0.00151998 0.0052336 0.00321862
1955 1015 7 17.1393 25.5317 1.05802 0.00306699 0.00280224 -0.000788249
1956 1015 6 16.1934 26.1435 0.774108 0.00233677 0.00105107 -0.0021288
1957 1016 6 77.7497 29.6946 28.8666 0.000301303 0.0008719 0.00376671
1958 1016 7 77.3769 30.7818 28.7031 0.00266816 0.0011137 -2.29222e-05
1959 1016 6 77.0305 31.3654 27.7619 -0.000342847 -0.00277138 -0.00132365
1960 1017 6 56.8941 54.2597 20.8904 0.00483826 0.00440763 0.00126457
1961 1017 7 55.8008 53.8921 20.7686 0.00502287 0.00223282 0.00617228
1962 1017 6 54.6634 53.6789 20.6855 0.00522524 0.00153303 0.00519897
1963 1018 6 56.6128 20.996 12.1576 -0.000399783 0.00246491 0.00184435
1964 1018 7 55.9831 21.8117 12.6902 0.000349452 0.0014648 0.00426195
1965 1018 6 55.0931 22.3618 13.1947 -0.000454799 0.00251424 0.00169877
ITEM: TIMESTEP
50000
ITEM: NUMBER OF ATOMS
57
ITEM: BOX BOUNDS xy xz yz pp pp pp
0.0000000000000000e+00 1.0131084100000001e+02 2.7630201000000000e+01
0.0000000000000000e+00 5.8491914999999999e+01 1.8420141000000001e+01
0.0000000000000000e+00 3.0080027000000001e+01 1.0634897000000000e+01
ITEM: ATOMS id mol type x y z vx vy vz
1909 1000 6 51.3332 26.0048 17.0632 0.000930002 0.00486775 0.0111818
1910 1000 7 52.4828 25.8826 17.1681 0.00111746 -0.00443789 -0.00171833
1911 1000 6 53.3795 26.424 16.6681 -5.97182e-05 -0.00394731 -0.0032986
1912 1001 6 48 9.40026 20.585 -0.00179066 -0.00591718 -0.0023727
1913 1001 7 48.1792 10.105 19.6796 0.00489259 -0.00325014 0.0010262
1914 1001 6 48.3666 10.1181 18.5349 -0.00553636 0.000963802 -0.000633146
1915 1002 6 52.5532 23.7434 27.348 0.00154367 0.00622913 0.00367958
1916 1002 7 51.9598 24.695 27.6444 0.000790501 0.00528112 0.00521532
1917 1002 6 51.1631 25.4693 27.9775 -0.00181961 0.00499328 -0.000358365
1918 1003 6 80.3808 44.7732 24.6734 0.00799934 0.00111993 -0.00640655
1919 1003 7 80.3533 45.6363 25.4478 -0.0016016 -0.00269219 -0.00249824
1920 1003 6 80.9814 45.8535 26.3999 -0.000607614 0.00265629 -0.00437376
1921 1004 6 91.2128 52.7464 18.6488 0.00021343 -0.00542979 -0.00236184
1922 1004 7 92.2141 53.2617 18.3674 -0.00268738 -0.000373408 -0.0034262
1923 1004 6 92.7528 53.2132 17.3399 -0.00248526 0.000650568 -0.0033685
1924 1005 6 76.2188 52.2061 21.6706 -0.0035377 -0.0007992 0.00426201
1925 1005 7 76.3244 53.0853 20.9237 -7.38239e-05 -0.00237627 0.00289498
1926 1005 6 75.2782 53.4737 21.2426 -0.00109967 -0.00110934 -0.00201378
1927 1006 6 64.7215 26.542 23.8151 -0.000199327 -0.0029318 0.000648101
1928 1006 7 63.9082 27.0773 24.4466 0.000630608 0.000552189 -0.0012367
1929 1006 6 63.4831 26.9032 25.513 -0.00266813 0.00230215 -0.0022659
1930 1007 6 77.0831 27.2638 29.8605 -0.000537932 0.00220208 0.00380148
1931 1007 7 76.6024 26.2093 29.8183 0.00129105 0.00131966 0.00501877
1932 1007 6 58.8922 14.6751 -0.0718339 0.00457951 0.00232509 -0.00251527
1933 1008 6 45.9136 38.8156 20.7881 -0.0027986 -0.00335194 -0.000787493
1934 1008 7 45.589 37.9178 20.1298 -0.00325125 -0.00359337 -0.000235022
1935 1008 6 44.9132 37.2774 19.4353 -0.00258946 -0.00261012 -0.00178568
1936 1009 6 23.7468 32.6407 11.759 -0.00487146 -0.00129089 -0.000920393
1937 1009 7 77.867 32.5408 11.5708 -0.00426933 0.00100157 -0.00578635
1938 1009 6 77.4954 33.4695 12.1604 -0.00617832 -0.00632522 0.00455184
1939 1010 6 26.9451 38.6511 9.23319 -0.00395705 -0.0014936 -0.0041861
1940 1010 7 27.0893 37.622 8.7173 -0.003382 -0.00243552 -0.0021466
1941 1010 6 26.9128 36.9712 7.77339 -0.00247928 -0.00421226 -0.00109041
1942 1011 6 79.3565 53.8883 27.0276 -0.000877443 0.000676709 -0.00512409
1943 1011 7 78.3848 54.5031 26.8758 0.0039465 0.00912649 -0.00178143
1944 1011 6 77.4196 55.0991 27.1212 -0.0013881 -0.000603334 0.00086711
1945 1012 6 40.475 39.8614 29.0209 -8.2758e-05 -0.00490784 0.00432895
1946 1012 7 40.9802 39.2264 28.1921 -0.00101548 0.00194575 -0.00148951
1947 1012 6 40.832 38.7183 27.1597 -0.00575133 0.00065164 -0.000172666
1948 1013 6 47.7358 13.1466 20.2922 0.000939129 -0.00130928 0.00079221
1949 1013 7 47.1562 13.5678 19.3788 0.00238524 0.000467542 0.000694048
1950 1013 6 46.2439 14.2757 19.2586 0.000137421 -0.00242264 0.0007331
1951 1014 6 79.4799 45.8468 29.4042 0.00445299 -0.00226533 -0.00149088
1952 1014 7 60.9695 35.0173 0.463907 0.00565654 -0.00477859 -0.00182465
1953 1014 6 61.0087 35.3335 1.57938 0.00089932 -0.00574424 -0.00138368
1954 1015 6 21.8301 26.2902 4.21648 0.000925983 -0.00197778 -0.000107302
1955 1015 7 21.0429 25.5329 3.81491 -0.0088265 0.00338531 0.00889717
1956 1015 6 20.4449 26.0482 2.96256 -0.00316386 0.00144339 0.00375046
1957 1016 6 65.9595 18.664 5.03739 -0.00133491 0.00268434 0.00571668
1958 1016 7 64.9939 18.1484 5.42401 -0.00194826 -1.9666e-05 0.000578644
1959 1016 6 64.2964 17.3376 4.97385 -0.0019858 0.00409923 -0.0067815
1960 1017 6 50.7321 49.7376 18.2567 -0.00393248 -0.00415595 -0.00531166
1961 1017 7 49.9188 50.5542 18.388 -0.00165323 -0.00185809 -0.00548502
1962 1017 6 49.231 51.4772 18.5331 0.000849629 0.000861907 -0.0109221
1963 1018 6 60.5305 25.2843 16.9227 -0.000372102 0.00867065 0.000797154
1964 1018 7 59.3709 25.2997 16.9446 -0.000460127 0.00193045 0.000863277
1965 1018 6 58.2614 25.2086 16.6126 0.000133559 0.00643524 -0.00235658
ITEM: TIMESTEP
55000
ITEM: NUMBER OF ATOMS
57
ITEM: BOX BOUNDS xy xz yz pp pp pp
0.0000000000000000e+00 1.0131084100000001e+02 2.7630201000000000e+01
0.0000000000000000e+00 5.8491914999999999e+01 1.8420141000000001e+01
0.0000000000000000e+00 3.0080027000000001e+01 1.0634897000000000e+01
ITEM: ATOMS id mol type x y z vx vy vz
1909 1000 6 60.2557 21.3099 19.8724 0.00200326 0.00400497 0.00502098
1910 1000 7 59.1774 21.5757 19.5347 0.00463587 0.00322735 -0.00399588
1911 1000 6 58.5942 22.5781 19.4843 0.0030459 0.00224149 -0.00520329
1912 1001 6 79.3873 51.2718 22.223 -0.0017893 -0.00665392 -0.00011325
1913 1001 7 80.1914 50.5505 22.6494 -0.00159505 -0.00336704 0.00508066
1914 1001 6 81.1823 50.5149 23.2515 -0.000284996 0.00142772 0.0032084
1915 1002 6 47.6176 19.5501 22.4895 0.00273114 -0.000635863 -0.00547822
1916 1002 7 47.0307 19.3438 21.5105 -0.000585081 -0.0031171 -0.00296725
1917 1002 6 46.5455 18.8867 20.5613 0.00151082 -0.00378934 -0.00371485
1918 1003 6 76.8792 35.8863 18.5457 -0.00320894 0.00149716 -0.00160168
1919 1003 7 76.867 37.0256 18.7631 0.0012448 0.000289196 0.00497646
1920 1003 6 76.0819 37.7178 19.2657 0.000745591 0.00170597 0.00224551
1921 1004 6 8.67984 3.27625 8.95582 -0.00329961 -0.00685181 -0.00676489
1922 1004 7 37.2925 50.548 8.75684 0.00361221 0.00223835 0.000623468
1923 1004 6 37.7224 49.6793 9.39621 0.00322662 0.00150017 -0.000120221
1924 1005 6 72.5095 54.6607 20.2304 -0.00328781 0.00384256 -0.00304099
1925 1005 7 71.6849 54.2003 20.9013 0.00310027 -0.00132987 0.0012604
1926 1005 6 71.5644 53.3287 20.1445 -0.000863853 0.00205593 -0.00200721
1927 1006 6 64.9513 33.6296 28.0152 0.00530972 0.00391643 0.00508078
1928 1006 7 65.9497 33.2577 27.5552 0.00407659 -0.00323535 0.0081865
1929 1006 6 66.2139 32.4292 26.7858 -0.000246943 0.000192112 0.00301085
1930 1007 6 60.1155 19.5414 3.43516 -0.000328263 -0.00118698 -0.0041661
1931 1007 7 59.3852 20.1148 2.74049 -0.00170082 0.00313883 0.000847612
1932 1007 6 58.2616 19.8345 2.8281 -0.00173537 0.00380704 0.00254235
1933 1008 6 39.727 32.6617 22.4505 -0.00330557 0.00142549 -0.00303322
1934 1008 7 38.7805 32.3703 23.054 -0.000824588 -0.00186038 -0.000729165
1935 1008 6 37.6721 32.3928 23.4004 0.000992337 -0.00257533 0.00513134
1936 1009 6 77.4679 35.3438 14.7693 0.0040457 0.00382926 -0.0059912
1937 1009 7 76.9067 34.4875 15.3149 0.00125204 0.00804397 -0.00224948
1938 1009 6 77.6617 33.6232 15.1381 -0.00473908 0.00321651 -0.00423436
1939 1010 6 25.742 37.8803 8.83844 -0.00267153 0.00455541 0.00205381
1940 1010 7 26.5057 38.5783 9.36323 -0.000466254 0.0022507 0.00190978
1941 1010 6 27.3097 39.4064 9.24728 0.000229085 0.00158884 0.00200444
1942 1011 6 77.0628 56.1919 27.8991 0.00470668 0.0041363 0.00542305
1943 1011 7 77.2666 56.8994 27.003 0.00153265 0.00268692 0.00355659
1944 1011 6 49.9394 9.99114 26.4072 -0.00329701 0.0026749 0.00108189
1945 1012 6 39.6421 43.892 23.2826 -0.00280781 -7.105e-06 0.0046477
1946 1012 7 39.8686 43.3104 24.2603 0.00404344 -0.00101826 0.0024592
1947 1012 6 39.872 42.2669 24.7675 -0.001821 -9.43251e-05 0.00439947
1948 1013 6 76.0637 53.6108 20.4065 0.00357911 0.000600142 0.00063213
1949 1013 7 75.1083 52.9513 20.4103 0.00139113 0.0037925 0.00453483
1950 1013 6 74.9143 51.8127 20.5274 -0.0014933 0.00376742 -0.000483889
1951 1014 6 79.1478 43.3731 28.8764 -0.00116894 0.000255855 -0.00271458
1952 1014 7 79.7578 42.6777 29.5759 -0.000650448 0.00271761 -0.000719585
1953 1014 6 61.4492 31.2009 0.28623 0.000306791 0.00168221 -0.00195758
1954 1015 6 71.3385 26.262 3.06399 0.00474253 0.00101929 0.00261561
1955 1015 7 70.8479 25.8295 4.02666 0.00280461 -0.00204607 0.000250919
1956 1015 6 69.719 26.1033 4.01359 0.00303421 -0.00114284 -0.000659139
1957 1016 6 21.117 23.2293 8.81979 -0.000513684 0.00193048 -0.000801827
1958 1016 7 21.402 22.1254 9.03886 -0.000253735 0.000849968 -0.00658446
1959 1016 6 20.809 21.1296 8.9811 -0.00614491 0.00347788 0.00858839
1960 1017 6 23.4928 6.86068 17.3664 0.000191967 0.00057861 0.00733418
1961 1017 7 24.3588 7.07108 18.1089 0.000794797 0.00745661 0.00468192
1962 1017 6 25.1097 7.2749 18.9695 0.00380379 0.00084279 0.00362307
1963 1018 6 61.0646 25.1273 15.496 0.00253991 0.00793579 -0.000337735
1964 1018 7 60.8896 25.1386 14.3494 -0.00197417 -0.000795169 0.000265017
1965 1018 6 61.0789 25.0707 13.2054 -0.00405536 0.00161632 -0.000222579
ITEM: TIMESTEP
60000
ITEM: NUMBER OF ATOMS
57
ITEM: BOX BOUNDS xy xz yz pp pp pp
0.0000000000000000e+00 1.0131084100000001e+02 2.7630201000000000e+01
0.0000000000000000e+00 5.8491914999999999e+01 1.8420141000000001e+01
0.0000000000000000e+00 3.0080027000000001e+01 1.0634897000000000e+01
ITEM: ATOMS id mol type x y z vx vy vz
1909 1000 6 55.8031 24.0315 21.4759 -0.00209891 -0.00170446 7.62962e-05
1910 1000 7 56.7584 23.7071 20.9019 -0.00356857 0.00224093 -0.00459955
1911 1000 6 57.4652 24.268 20.1718 -0.00745672 0.00620524 -0.00531774
1912 1001 6 51.9047 34.3687 4.31806 0.000928826 -0.000698337 -0.000133952
1913 1001 7 51.6716 33.2712 4.61756 0.00597428 -0.00101178 0.00264355
1914 1001 6 51.4546 32.2163 4.18645 0.00678288 -0.00225306 0.0052738
1915 1002 6 43.6125 30.5533 10.3751 -0.000203851 0.000405211 0.00786314
1916 1002 7 42.6106 30.2619 9.86848 0.00182704 0.00813378 -0.000597565
1917 1002 6 41.7723 29.8481 9.18194 0.00403073 0.00361945 -0.000567438
1918 1003 6 78.2873 33.0192 11.746 0.00199798 -0.00157306 0.0035242
1919 1003 7 23.5783 32.0353 12.0166 0.00262969 -0.00167963 0.00184885
1920 1003 6 24.6585 31.662 11.8115 8.55887e-05 -0.0043636 -0.00666633
1921 1004 6 42.7228 51.4045 13.6007 0.00282583 -0.00295939 0.00400086
1922 1004 7 42.8059 51.1314 12.4755 0.00573304 0.00145942 0.00314298
1923 1004 6 41.9272 50.8998 11.7526 0.00774075 0.001978 0.000536426
1924 1005 6 72.9816 46.5782 14.615 0.00217143 -0.00488171 -0.00512644
1925 1005 7 74.1306 46.4367 14.5723 0.00185025 -0.00727096 -0.00584658
1926 1005 6 73.9885 45.5575 13.828 -0.000369366 -0.00602395 -0.00689573
1927 1006 6 70.5017 29.1139 27.7045 -0.00241129 -0.000598618 0.00419076
1928 1006 7 71.0213 29.8765 28.4082 -0.000423357 -0.00174969 0.00397048
1929 1006 6 70.9044 30.1303 29.5352 0.00686774 -0.00762154 0.00604888
1930 1007 6 55.091 18.2592 8.51126 -0.000284832 0.00250588 0.00128296
1931 1007 7 55.1256 17.4931 7.64138 0.0010792 0.00164887 0.00209189
1932 1007 6 55.2458 16.3773 7.94018 0.00152602 0.00203095 0.00333885
1933 1008 6 22.9897 15.062 1.77274 -0.00912873 -0.00284279 -0.00284983
1934 1008 7 22.6417 15.9196 1.07386 -0.00507442 0.000319104 -0.000988514
1935 1008 6 22.6665 16.945 0.529061 0.000962874 0.00039796 -0.000565046
1936 1009 6 65.4704 38.4399 8.82334 -0.00298551 -0.00953961 0.00888871
1937 1009 7 66.1205 37.8383 8.0742 -0.00253299 0.00216288 -0.00011648
1938 1009 6 67.1226 37.8253 8.66063 -0.00221525 -0.00489976 -0.000815979
1939 1010 6 28.8326 37.7479 8.85635 -0.00585825 0.00194919 -0.00218716
1940 1010 7 27.9559 37.5444 8.12421 -0.00559807 -0.00564307 -0.000388801
1941 1010 6 27.6215 37.1214 7.09718 -0.00340033 -0.00436985 -0.00162895
1942 1011 6 55.0996 8.62404 23.3131 0.00048602 -0.000430273 -0.00101261
1943 1011 7 82.0432 55.7839 23.9359 -0.00147371 0.00164108 -0.000854245
1944 1011 6 81.711 54.9298 24.648 -0.00422616 -6.74216e-05 -0.00418729
1945 1012 6 20.2324 26.8285 1.48502 0.000793501 -0.00473314 0.000363989
1946 1012 7 21.2804 26.9524 1.96655 -0.00262464 0.00206893 0.00605375
1947 1012 6 21.9541 26.6643 2.86603 -0.000252621 -0.00687043 0.00141396
1948 1013 6 69.6571 50.0003 14.3213 -0.00262443 -0.00523974 0.00585987
1949 1013 7 70.7854 49.7526 14.4356 0.000518778 0.00525051 -0.00243359
1950 1013 6 71.6012 50.044 15.2086 0.00119058 0.00486364 -0.00299673
1951 1014 6 79.3983 38.5863 28.2303 0.00274747 0.00589449 -0.00286052
1952 1014 7 79.9236 38.4736 29.2581 0.00197017 0.00143697 -0.00295188
1953 1014 6 61.9191 28.2415 0.183459 -0.000519156 -0.003255 -4.30457e-05
1954 1015 6 16.5509 25.9301 0.4003 -0.00317241 0.000980422 -0.000560618
1955 1015 7 17.4985 26.3239 0.949345 0.000527431 -0.00260374 -0.00437469
1956 1015 6 17.1808 27.2069 1.63421 0.00717281 0.000699023 -0.00555041
1957 1016 6 22.9997 16.507 11.9746 0.00433491 -0.00231434 0.00525974
1958 1016 7 22.4959 16.2623 10.9578 0.00298671 0.00689992 0.00370973
1959 1016 6 21.7238 15.46 10.6311 0.00507394 0.00773451 -0.00327322
1960 1017 6 37.2191 11.564 9.57248 0.00178263 -0.00385136 -2.14918e-05
1961 1017 7 37.2897 10.6204 10.2433 0.00526044 -0.000828838 0.00386482
1962 1017 6 37.2432 9.74776 11.0065 0.00406839 -0.000634072 0.00401501
1963 1018 6 63.5991 29.0144 10.2837 0.00344752 0.000423019 -0.00136062
1964 1018 7 63.8158 29.394 11.3581 -0.00533055 0.00782696 -0.00220612
1965 1018 6 64.2782 29.9832 12.2461 0.000593053 0.000393158 -0.000358129
ITEM: TIMESTEP
65000
ITEM: NUMBER OF ATOMS
57
ITEM: BOX BOUNDS xy xz yz pp pp pp
0.0000000000000000e+00 1.0131084100000001e+02 2.7630201000000000e+01
0.0000000000000000e+00 5.8491914999999999e+01 1.8420141000000001e+01
0.0000000000000000e+00 3.0080027000000001e+01 1.0634897000000000e+01
ITEM: ATOMS id mol type x y z vx vy vz
1909 1000 6 59.586 19.1794 21.5305 -0.00166401 -0.00370514 0.00362605
1910 1000 7 58.9529 20.1266 21.3086 -0.00583067 -0.00598696 0.00577323
1911 1000 6 58.6038 20.6248 20.32 0.00294316 0.00199911 0.00669923
1912 1001 6 52.3986 35.068 3.85717 -0.00205688 0.00270427 -0.00221595
1913 1001 7 52.6841 34.6608 4.90655 0.00213649 0.0075381 -0.00148166
1914 1001 6 53.2554 33.8093 5.44912 -0.00304942 0.00517732 0.000273495
1915 1002 6 41.6158 42.3715 26.3917 -0.00370151 0.00428575 -0.0038114
1916 1002 7 41.1357 42.698 25.3875 -0.00460585 0.00422134 -0.00339998
1917 1002 6 40.471 43.1407 24.5463 -0.00613174 0.00297542 -0.00285002
1918 1003 6 76.9496 37.3501 11.4323 0.00821102 0.00301664 -0.00206699
1919 1003 7 76.7514 38.1127 12.2835 -0.00296273 -0.000632808 -0.00139882
1920 1003 6 76.666 39.2707 12.2921 -0.000601634 -0.000490613 0.00286044
1921 1004 6 64.9196 8.16005 20.1801 -0.000920778 -0.0038352 0.00814659
1922 1004 7 64.0733 8.52722 20.8846 -0.00165834 0.00316411 0.00361286
1923 1004 6 64.1911 9.23395 21.7984 -0.000329791 0.000193844 0.00573895
1924 1005 6 63.6641 32.1658 15.5192 -0.00248874 -0.00708684 0.00375532
1925 1005 7 63.8064 32.9636 16.3471 -0.000661852 -0.00352999 1.35958e-05
1926 1005 6 64.7167 33.3924 15.7689 -0.00353193 -0.00438209 -0.00513693
1927 1006 6 49.0584 17.3244 4.33299 0.002211 0.000804007 0.00285199
1928 1006 7 49.0955 17.8301 3.28919 0.00207955 -0.00891612 -0.00186204
1929 1006 6 48.2824 18.111 2.50939 0.000647416 -0.00460311 0.00118498
1930 1007 6 55.8243 22.2383 8.41697 0.00167033 -0.000858447 8.23163e-05
1931 1007 7 56.8893 22.6961 8.38306 0.00158913 -0.000703035 -0.000369765
1932 1007 6 57.7509 22.0301 8.78657 0.00246947 -0.00230938 -0.0049007
1933 1008 6 41.6043 22.8463 26.778 0.0016741 -0.00547071 0.00511227
1934 1008 7 42.743 22.8301 26.559 0.00154678 -0.000961417 0.00411513
1935 1008 6 43.8079 22.3896 26.414 0.00211817 0.00249958 -0.00220003
1936 1009 6 74.8565 39.4124 6.43604 -0.00111667 0.00295749 -0.00442393
1937 1009 7 74.6938 38.653 5.57428 0.00451399 0.00063511 -0.00344053
1938 1009 6 74.5155 37.6913 6.20011 -0.00275623 0.00294495 -0.0019625
1939 1010 6 79.2572 37.9097 9.277 0.000800842 0.000572722 -0.000529498
1940 1010 7 80.1533 38.3577 8.6921 -0.00195283 0.00373723 -0.00232461
1941 1010 6 80.9281 39.2164 8.60287 0.0029636 -8.84547e-05 0.00354963
1942 1011 6 76.8218 54.2642 27.3603 0.000242437 -0.00390431 -0.00178479
1943 1011 7 77.9318 53.9723 27.1932 0.00195244 0.00104824 0.000924999
1944 1011 6 78.9878 53.9215 26.7143 0.00279086 0.00425088 0.0024335
1945 1012 6 19.7211 25.5323 2.50709 0.00226201 0.00370698 0.000664481
1946 1012 7 19.1804 26.285 3.20472 -0.00588299 -0.00366419 0.00230453
1947 1012 6 18.297 27.0314 3.29656 -0.00274083 0.000653475 -0.00256172
1948 1013 6 70.3899 48.9626 15.7187 0.00148939 0.00440837 0.00185279
1949 1013 7 71.2918 48.3732 15.2866 0.00129709 0.00439558 0.00146895
1950 1013 6 72.3624 48.6697 14.9492 0.000660081 0.00462155 -0.000354074
1951 1014 6 75.3503 37.0843 29.6239 0.00184844 -0.00189484 -0.00147072
1952 1014 7 74.4706 36.359 29.4114 -0.00112669 0.00112957 0.000523953
1953 1014 6 73.6396 35.8988 28.7455 -0.00333711 0.00304942 0.00195531
1954 1015 6 36.569 26.4883 21.7084 0.000247533 0.00221099 0.0014961
1955 1015 7 36.836 27.618 21.7912 0.00196062 0.0021347 -0.00298821
1956 1015 6 37.9108 27.7066 22.2231 0.00322674 0.00215739 -0.00614333
1957 1016 6 22.5446 16.8552 14.7112 0.00287546 -0.00053622 -0.00101293
1958 1016 7 21.5493 17.4244 14.8937 0.00363131 0.000180216 0.000874754
1959 1016 6 21.2606 18.5472 14.845 0.00430488 0.000369597 0.00124829
1960 1017 6 66.4131 47.9688 20.3368 -0.00380179 -0.00656042 -0.00486411
1961 1017 7 66.5425 48.7897 19.5276 -0.00729149 -0.00208551 -0.000882058
1962 1017 6 66.6087 49.5004 18.613 -0.00200556 -0.00042718 0.000789503
1963 1018 6 60.4785 33.0816 11.6756 -0.0033661 0.00106228 0.00396291
1964 1018 7 61.1921 32.406 12.2918 -0.00455144 -0.00591445 -0.00231433
1965 1018 6 61.5834 31.6398 13.0723 -0.00298899 0.00275976 0.00541686
ITEM: TIMESTEP
70000
ITEM: NUMBER OF ATOMS
57
ITEM: BOX BOUNDS xy xz yz pp pp pp
0.0000000000000000e+00 1.0131084100000001e+02 2.7630201000000000e+01
0.0000000000000000e+00 5.8491914999999999e+01 1.8420141000000001e+01
0.0000000000000000e+00 3.0080027000000001e+01 1.0634897000000000e+01
ITEM: ATOMS id mol type x y z vx vy vz
1909 1000 6 53.7792 27.8157 17.87 0.00828409 -0.00351279 0.000881961
1910 1000 7 53.8489 26.9534 17.0961 0.00712121 -0.0017056 -0.00123614
1911 1000 6 53.4096 26.8164 16.0304 0.00420894 0.000114474 -0.000269609
1912 1001 6 59.6436 25.0441 4.64368 -0.00589862 -0.00109694 0.000637256
1913 1001 7 59.4264 26.1323 4.98608 -0.000240984 -0.000965541 0.00380874
1914 1001 6 59.9096 27.1783 5.12015 0.0049072 -0.00360284 0.00582751
1915 1002 6 41.192 37.1147 19.7968 7.58623e-05 0.0071449 -6.63552e-05
1916 1002 7 41.6858 37.611 18.8719 0.00109757 0.00591344 -0.00018165
1917 1002 6 42.053 38.33 18.0391 0.00204152 0.00481134 -0.000716949
1918 1003 6 77.9236 33.5237 12.4911 -0.00307307 -0.00492209 0.00699872
1919 1003 7 77.3819 34.432 12.9677 -0.00121506 -0.00250954 0.00451206
1920 1003 6 77.4452 34.9162 14.0211 0.00215036 0.0022101 0.00214072
1921 1004 6 43.0785 50.863 15.6789 0.00629995 0.00163054 -0.00339741
1922 1004 7 42.5301 51.8754 15.8263 0.00656659 0.00320504 -0.0132239
1923 1004 6 43.0118 52.8846 16.139 0.00310553 0.000733481 8.08987e-05
1924 1005 6 68.2097 41.6604 11.3582 -0.00106873 0.00354542 -6.43727e-05
1925 1005 7 68.0537 42.734 10.9518 -0.00296552 0.00670801 0.00901998
1926 1005 6 69.2044 42.8811 10.916 -0.00314463 0.00724815 0.00548769
1927 1006 6 50.2043 17.4455 1.75542 -0.00357939 0.00272549 0.00276545
1928 1006 7 50.8767 16.6434 2.2566 0.0064821 0.00624283 -0.00510575
1929 1006 6 51.554 16.6463 3.19973 0.00159531 0.00359622 -0.00158854
1930 1007 6 55.0273 21.9477 8.25054 0.000243154 0.00381456 0.0027195
1931 1007 7 55.7137 21.8593 9.18102 0.000811803 -0.002118 0.00173658
1932 1007 6 56.7818 21.4421 8.99725 6.77271e-05 -0.00269559 -0.00127656
1933 1008 6 27.2887 9.20715 1.49816 -0.00350748 0.00351005 0.000945706
1934 1008 7 27.6167 8.92703 0.421647 0.000508907 0.00207818 0.00254184
1935 1008 6 46.0684 18.9703 29.5027 0.00908985 -0.00324235 0.00596388
1936 1009 6 27.4365 30.0871 5.24973 0.0021924 -0.00373121 0.00147471
1937 1009 7 27.8715 31.1032 5.6023 0.00209192 -0.00253322 -0.00185371
1938 1009 6 28.1214 30.8308 6.70302 0.00347862 0.000659881 -0.00137833
1939 1010 6 31.2044 37.6429 10.3054 -0.00574057 0.00019001 0.00362886
1940 1010 7 30.1663 37.5265 9.80077 -0.00434367 -0.00285545 0.00145779
1941 1010 6 29.137 36.9916 9.80002 -0.00323835 -0.00498033 5.64191e-05
1942 1011 6 49.7529 9.76843 26.8655 9.99447e-05 -0.00115169 0.00220114
1943 1011 7 50.1286 10.6901 26.27 0.00147538 0.000562961 0.00572254
1944 1011 6 50.6732 11.3209 25.4622 -0.0023111 0.0025701 0.00473729
1945 1012 6 17.3415 26.2781 2.73624 -0.00120958 -0.000796322 0.00302758
1946 1012 7 18.3738 26.1882 3.25741 0.000100878 0.0026301 0.00102284
1947 1012 6 19.5225 26.1673 3.09578 -0.000662642 -0.00919098 -0.00287685
1948 1013 6 46.2616 12.4251 14.4823 0.000789278 0.00207228 -0.0026567
1949 1013 7 46.3189 11.8489 15.4885 0.00668485 0.00293071 -0.0025012
1950 1013 6 46.3434 10.7237 15.7737 0.00253644 0.00312424 -0.00138154
1951 1014 6 53.5047 25.8401 1.98929 0.00516895 -0.000614896 -0.000952265
1952 1014 7 53.3106 26.2114 3.07067 -0.00594878 -0.00494534 -0.00146101
1953 1014 6 52.9026 26.9626 3.85494 -0.00186224 -0.0013492 -0.00277965
1954 1015 6 42.8537 19.1734 20.0667 -0.00598552 0.00344051 0.00169973
1955 1015 7 43.1604 20.0395 20.781 0.00758692 0.00178162 -0.00211662
1956 1015 6 43.3485 19.5908 21.836 -0.000688237 0.00367467 0.000163262
1957 1016 6 24.4077 18.8591 13.5625 -0.000332428 -0.00147418 0.000492936
1958 1016 7 24.129 19.3323 14.5853 -0.00679344 0.00234303 -0.00303381
1959 1016 6 23.3032 19.0976 15.366 -0.00118909 -0.00558204 0.000511489
1960 1017 6 41.2415 6.89912 14.7012 0.00167838 -0.00595956 -0.00547866
1961 1017 7 42.204 6.76917 15.3352 0.00146442 -0.0044714 -0.00484879
1962 1017 6 43.1025 6.75397 16.0691 -0.00133516 -0.00682142 -0.00147025
1963 1018 6 59.7724 34.6945 15.9311 0.00181489 -0.00241968 0.00192661
1964 1018 7 58.7211 34.285 16.2003 0.00299903 -0.00283095 0.00592538
1965 1018 6 57.8275 33.5586 16.3522 0.000528351 -0.00115764 -0.000611829
ITEM: TIMESTEP
75000
ITEM: NUMBER OF ATOMS
57
ITEM: BOX BOUNDS xy xz yz pp pp pp
0.0000000000000000e+00 1.0131084100000001e+02 2.7630201000000000e+01
0.0000000000000000e+00 5.8491914999999999e+01 1.8420141000000001e+01
0.0000000000000000e+00 3.0080027000000001e+01 1.0634897000000000e+01
ITEM: ATOMS id mol type x y z vx vy vz
1909 1000 6 53.8281 25.9696 15.0034 -0.0027974 0.000393314 -0.00299892
1910 1000 7 54.1866 27.0628 15.1571 -0.000290396 -0.000478518 -0.0026454
1911 1000 6 53.958 27.8578 15.9714 -0.000396708 0.000603795 -0.00373176
1912 1001 6 63.6608 33.1555 14.8181 0.00267464 -0.00427385 0.000459185
1913 1001 7 64.7811 33.4115 14.6515 0.00170626 0.00422576 0.00700879
1914 1001 6 65.5122 34.2854 14.4334 -0.00475452 0.00826122 0.00152047
1915 1002 6 42.1111 41.0937 16.1771 0.00664888 0.000201305 -0.00504159
1916 1002 7 41.5412 41.3963 15.2132 -0.00224706 -0.000679302 -5.86954e-05
1917 1002 6 40.8986 41.4367 14.2485 0.00205055 -0.00519233 -0.00311011
1918 1003 6 79.9467 40.5741 18.9868 -0.00471122 0.0014997 -0.000785888
1919 1003 7 79.5604 40.084 18.009 -0.00196902 -0.0062979 0.00203887
1920 1003 6 78.5525 40.1655 17.4383 0.00148684 -0.00690153 -0.00414998
1921 1004 6 41.8507 53.3321 18.8214 0.00289303 -0.00401089 -0.00215717
1922 1004 7 41.0636 52.6083 19.273 0.00216375 0.000403121 0.00364626
1923 1004 6 41.2418 51.5086 19.6004 -0.00310832 -0.00257497 -0.0034867
1924 1005 6 65.236 43.1664 13.1073 -0.00566357 -0.00206301 -0.00632565
1925 1005 7 64.6184 42.6516 13.9414 0.00265945 -0.00152898 0.000166744
1926 1005 6 64.903 43.5073 14.6719 0.00167415 0.0041665 -0.00612145
1927 1006 6 48.5668 21.4162 1.83247 -0.00926811 -0.00249957 -0.000752495
1928 1006 7 48.8561 20.785 0.902659 -0.00877702 -0.0019905 -0.000945278
1929 1006 6 67.2431 31.6216 29.8397 -0.00648744 -0.000694249 -0.000783008
1930 1007 6 53.8218 27.4764 12.2924 0.00229439 -0.0053293 -0.0068373
1931 1007 7 52.6831 27.3347 12.4598 0.00259472 -0.00284051 -0.00268588
1932 1007 6 52.096 26.8141 11.6036 -0.00180494 -0.000833991 -0.000889018
1933 1008 6 27.803 8.51889 2.48885 0.0020086 0.00185209 -0.00210948
1934 1008 7 27.5298 9.44745 1.85009 0.00475001 0.000310129 -0.00552353
1935 1008 6 27.4652 10.5662 1.54476 -0.00728044 0.000878451 -0.00089761
1936 1009 6 30.3038 32.033 15.5673 0.000800757 0.00375653 -0.00406361
1937 1009 7 31.4489 32.1958 15.4767 0.00120742 0.00213457 -0.00183642
1938 1009 6 31.6136 32.8957 16.3885 0.00118573 -0.0019004 0.00126482
1939 1010 6 32.091 34.6113 11.8431 0.00120796 0.00607694 0.00886369
1940 1010 7 31.4414 35.0137 10.9702 -0.00459869 -0.00537346 0.00790629
1941 1010 6 30.6367 35.774 10.6236 0.00048971 -0.00318827 0.000886602
1942 1011 6 76.6346 54.8443 27.449 -0.00473047 -0.00499714 0.0020573
1943 1011 7 77.5899 54.1893 27.5102 -0.00195472 -0.00128559 -0.00154859
1944 1011 6 78.7055 53.8933 27.6314 3.90905e-05 0.0033485 -0.00858234
1945 1012 6 74.5087 30.023 5.66127 0.00527197 6.20812e-05 -0.00241341
1946 1012 7 74.4778 30.8602 6.46356 0.00153445 -0.000372181 -0.00210462
1947 1012 6 74.562 32.002 6.65072 0.00575331 -0.000965663 -0.000383732
1948 1013 6 47.6184 12.9593 18.9693 -0.00384544 -0.0059112 -0.000420543
1949 1013 7 48.504 12.2104 19.0183 -0.0010911 -0.00231551 0.00476082
1950 1013 6 48.5809 11.0521 19.0399 0.00351486 -0.00201438 0.00450296
1951 1014 6 77.3599 40.1968 26.1123 -0.000397724 0.000192618 -0.00239771
1952 1014 7 76.601 39.8 25.3302 -0.00161084 0.00490572 -0.00361152
1953 1014 6 75.5608 39.7585 24.8183 -0.00515455 0.00114248 0.0038944
1954 1015 6 42.3007 22.9174 15.5223 -0.000302279 0.00421994 0.00378394
1955 1015 7 41.6376 23.1986 16.4365 -0.00339482 0.00314334 0.00187211
1956 1015 6 41.2036 24.2612 16.2574 -0.00295892 0.00326849 0.00155842
1957 1016 6 27.4732 21.3651 9.52515 -0.000329254 0.000245043 -0.00378198
1958 1016 7 27.6737 20.7395 8.56799 -0.00281528 -0.00313924 -0.00209079
1959 1016 6 28.0783 21.013 7.51532 -0.000350438 -0.00785625 -0.00236927
1960 1017 6 72.9142 46.5609 7.79683 -0.00716953 -2.95524e-05 -0.00532249
1961 1017 7 73.7915 46.555 7.03802 -0.0054262 -0.000627751 -0.00330242
1962 1017 6 74.7294 46.4238 6.36782 -0.00182987 0.0015031 0.00131294
1963 1018 6 59.8952 33.508 13.7728 -0.00340824 0.00142492 -0.00550399
1964 1018 7 60.7485 32.8371 13.3638 -0.00128624 0.000794818 -4.30006e-05
1965 1018 6 61.5521 32.3852 12.6572 0.0076271 0.00468044 0.00760946
ITEM: TIMESTEP
80000
ITEM: NUMBER OF ATOMS
57
ITEM: BOX BOUNDS xy xz yz pp pp pp
0.0000000000000000e+00 1.0131084100000001e+02 2.7630201000000000e+01
0.0000000000000000e+00 5.8491914999999999e+01 1.8420141000000001e+01
0.0000000000000000e+00 3.0080027000000001e+01 1.0634897000000000e+01
ITEM: ATOMS id mol type x y z vx vy vz
1909 1000 6 61.7214 20.6547 19.2003 0.000140029 0.00147002 -0.00117217
1910 1000 7 60.6866 20.9148 18.7432 0.00203779 -0.000732888 -0.00672203
1911 1000 6 60.1586 21.9233 18.5165 -0.00365376 -0.00193565 0.00117953
1912 1001 6 60.9127 33.9798 21.0099 -0.00229597 -0.00600719 0.00109537
1913 1001 7 60.0928 34.762 20.7561 0.00139633 -0.00219901 0.000903608
1914 1001 6 59.1942 34.9715 20.053 0.00161609 0.00133106 0.00167481
1915 1002 6 45.2571 42.9415 12.2607 0.000825974 -0.00319461 -0.00287079
1916 1002 7 45.2758 43.1108 13.408 -0.00296229 0.00312523 -0.0037416
1917 1002 6 45.4972 43.4512 14.4945 0.00242226 -0.00103816 -0.00353442
1918 1003 6 25.4785 32.2361 9.91564 -0.00184108 -0.000380871 0.000782853
1919 1003 7 25.3542 31.2874 10.5714 0.00536208 0.000888814 0.00398505
1920 1003 6 25.6166 30.171 10.3898 -0.00491921 -0.000832962 -0.000289227
1921 1004 6 14.2956 9.07328 17.9454 0.00499021 0.00351422 -0.00306446
1922 1004 7 13.1958 9.16145 18.306 0.00526925 -0.00184058 -0.000904104
1923 1004 6 67.5367 9.45131 17.6589 0.00323741 -0.00211827 0.00185923
1924 1005 6 63.439 33.7938 19.4261 0.00028934 -0.00985442 0.0121238
1925 1005 7 64.1546 32.8944 19.281 0.00121969 -0.00757916 0.00261141
1926 1005 6 63.6712 32.6844 18.247 -0.00253896 -0.000724181 0.00297676
1927 1006 6 65.7365 18.5446 26.3706 -0.00268768 -0.00215363 -0.00116613
1928 1006 7 66.4222 19.4615 26.1815 -0.00717635 0.000991248 -0.00219196
1929 1006 6 66.6827 20.0812 25.2347 -0.00723251 -0.00117066 -0.00362229
1930 1007 6 51.5118 26.2973 9.90226 -0.00330184 -0.00138655 -0.00440937
1931 1007 7 50.6029 26.9853 10.1155 -0.00416671 -0.00420101 0.000983971
1932 1007 6 49.6189 26.73 9.55404 -0.00346217 -0.000203601 -0.00206802
1933 1008 6 46.9012 20.5122 29.6942 -0.00649353 -0.000635401 0.000667745
1934 1008 7 28.3758 9.31218 0.621438 0.000586979 0.000544618 0.00207009
1935 1008 6 27.9942 9.07932 1.69342 0.00329781 -0.00172747 0.00254144
1936 1009 6 29.5487 34.6638 10.4449 0.00239412 -0.00228137 0.000796149
1937 1009 7 30.3149 35.4301 10.0309 -0.00110252 0.00145848 0.00124746
1938 1009 6 30.2123 36.2568 10.8398 -0.00399591 -1.31959e-05 0.00238433
1939 1010 6 33.2887 34.4614 14.9514 -0.00143199 0.00262978 -0.00147624
1940 1010 7 33.2613 34.0255 13.8766 -0.00124149 0.0019771 -0.00121642
1941 1010 6 33.0171 34.2062 12.7571 0.00156137 0.00218172 -0.00179468
1942 1011 6 47.8391 10.878 25.7994 0.00386397 -0.00210588 -0.00210052
1943 1011 7 47.0024 10.5825 25.0525 0.000320217 -0.00120135 0.00151103
1944 1011 6 46.2148 10.6686 24.2045 0.00334019 -0.00288407 -0.00146493
1945 1012 6 73.9495 30.3758 6.41203 -0.00399453 0.000437191 -0.00477893
1946 1012 7 73.5182 31.3013 6.96252 0.00310743 0.00112096 -0.00036405
1947 1012 6 73.4573 31.8623 7.97616 0.00110284 -0.00729513 0.00417353
1948 1013 6 78.3703 51.6689 17.1412 -0.000410399 -0.00368925 0.00103902
1949 1013 7 77.8375 51.1015 16.2799 -0.00312022 -0.00207328 0.00165084
1950 1013 6 77.3422 51.4299 15.2825 -0.00234588 -0.000684986 0.00172331
1951 1014 6 73.5545 38.9188 25.4603 -0.00103142 0.0032946 -0.00269769
1952 1014 7 73.5898 38.7204 24.3183 0.00650014 -0.00147113 -0.00163718
1953 1014 6 73.4461 38.0658 23.3713 -0.00163462 -0.00034843 -0.00117882
1954 1015 6 36.7736 20.4649 20.5178 -0.00300243 0.00274433 -0.00398197
1955 1015 7 36.5382 19.6269 19.7453 0.0046404 0.00026638 -0.00362229
1956 1015 6 36.226 20.1309 18.7463 0.00152101 -0.00300253 -0.00429668
1957 1016 6 25.9602 12.5537 3.04882 -0.00203615 0.0040283 -0.000304204
1958 1016 7 25.5055 12.138 2.06483 0.00409076 0.00479743 -0.00345996
1959 1016 6 24.8764 12.6222 1.2185 0.00376223 0.00387517 -0.00374337
1960 1017 6 75.7968 46.3171 7.9528 0.00365416 0.000295231 0.000881156
1961 1017 7 75.1207 45.6981 8.66351 0.00229974 0.00144916 0.000597693
1962 1017 6 74.525 44.9468 9.31681 0.00183381 0.00262025 0.00151957
1963 1018 6 58.6764 33.2838 12.2894 0.00135249 -0.00336575 -0.00146161
1964 1018 7 59.1727 34.299 12.5511 0.00167522 -0.00378809 -0.000435217
1965 1018 6 59.4285 35.2919 13.097 -0.00118819 -0.00221882 -0.00194722
ITEM: TIMESTEP
85000
ITEM: NUMBER OF ATOMS
57
ITEM: BOX BOUNDS xy xz yz pp pp pp
0.0000000000000000e+00 1.0131084100000001e+02 2.7630201000000000e+01
0.0000000000000000e+00 5.8491914999999999e+01 1.8420141000000001e+01
0.0000000000000000e+00 3.0080027000000001e+01 1.0634897000000000e+01
ITEM: ATOMS id mol type x y z vx vy vz
1909 1000 6 55.6326 23.0933 21.1572 0.00352724 -0.00346193 -0.00188734
1910 1000 7 56.2724 23.5322 20.2938 0.00110688 -0.00182226 -0.0028474
1911 1000 6 57.3516 23.3145 19.9262 0.00183399 0.00238103 -0.00320216
1912 1001 6 64.3503 37.5451 22.2722 0.00809855 -0.00629992 0.00237318
1913 1001 7 64.4693 38.3528 21.4463 0.00573901 -0.00104168 0.00717582
1914 1001 6 64.1031 39.4017 21.1127 -0.00104674 -0.00226081 0.0107907
1915 1002 6 43.2886 42.3882 14.6888 -0.00538527 0.0034139 0.00102764
1916 1002 7 42.7079 42.321 13.6869 -0.00295221 0.000228886 -0.000168639
1917 1002 6 42.3673 42.3249 12.5781 -0.00138071 0.00102375 -0.000648637
1918 1003 6 76.5186 33.9754 4.33285 0.00323508 -0.0016473 0.00527396
1919 1003 7 75.9141 33.8669 5.31684 0.00330099 -0.00565438 0.00487252
1920 1003 6 75.041 33.1664 5.62554 -0.00045515 -0.00303851 0.000185323
1921 1004 6 64.3152 8.87046 10.581 0.000781252 -0.0041885 -0.00116892
1922 1004 7 63.2619 8.51981 10.242 0.000883262 -0.00238374 -0.00335252
1923 1004 6 63.0142 7.5664 9.62724 -0.000203311 -0.00576803 0.00233363
1924 1005 6 58.5642 35.1587 15.4399 0.000460299 0.0019119 -0.00255668
1925 1005 7 59.2646 34.5605 14.7373 0.000930718 -0.00588754 0.00455171
1926 1005 6 58.5814 34.8286 13.8382 0.00617112 -0.00877934 -0.000292332
1927 1006 6 69.0526 14.8926 20.2847 0.00263324 0.0095465 -0.00278234
1928 1006 7 68.1259 15.0939 19.6158 -0.0027941 -0.00720294 -0.000303458
1929 1006 6 66.991 15.201 19.8362 -0.000634762 0.00139659 0.00663704
1930 1007 6 57.2284 31.2568 27.2027 -0.00738683 0.000458722 0.00380085
1931 1007 7 57.4559 30.2653 27.7595 -0.00334062 0.00144879 0.00391027
1932 1007 6 58.55 30.1137 28.1183 -0.00210592 0.00475572 0.00154263
1933 1008 6 28.7225 15.3704 6.93344 -0.00183485 0.00179924 0.00704424
1934 1008 7 29.7264 14.8322 6.71561 -0.000465299 0.00311459 0.0101057
1935 1008 6 30.8207 14.6955 6.35128 -0.00510895 4.46157e-06 -0.00267519
1936 1009 6 27.2937 37.5322 7.81139 -0.00437104 0.00326183 -0.00402126
1937 1009 7 27.9388 38.3767 8.27667 -0.0042337 0.00355757 -0.00474848
1938 1009 6 28.9666 37.8372 8.3037 -0.0058768 0.000796401 0.00262305
1939 1010 6 31.8826 34.8219 12.6266 -0.000619614 0.0011538 -0.00183199
1940 1010 7 32.9716 34.4222 12.6124 -0.00135084 -0.000887732 -0.000446409
1941 1010 6 33.7183 33.6136 12.9787 -0.0035925 -0.00296154 -0.000454166
1942 1011 6 77.8151 55.1508 26.9333 0.00192866 -0.00190985 0.000619855
1943 1011 7 78.2521 54.5929 27.8514 0.00123446 0.00272774 0.00376828
1944 1011 6 79.0032 54.258 28.6704 0.00511378 -0.00312381 -0.00218246
1945 1012 6 38.5583 41.4308 30.0655 -0.00339353 -0.00512914 -0.00397862
1946 1012 7 38.4852 42.5749 29.8888 0.00115556 -0.00460064 -0.00244125
1947 1012 6 38.3178 43.4064 29.0973 0.0038821 -0.00289327 -0.00122399
1948 1013 6 74.1542 52.0743 21.5844 -0.00109286 -0.00113632 0.00829325
1949 1013 7 73.2181 52.7608 21.5837 0.00113114 0.001886 -0.001992
1950 1013 6 72.0898 52.5863 21.3731 0.00140125 0.00351984 -0.00479276
1951 1014 6 72.7109 43.2172 23.4814 -0.000142138 -0.00605333 -0.0023453
1952 1014 7 71.6319 43.6373 23.5453 0.0012888 -0.00182407 -0.00598731
1953 1014 6 70.8517 44.4786 23.7167 0.00376572 -0.000561743 -0.00090651
1954 1015 6 30.8935 27.002 8.52425 -0.00252235 0.00250293 -0.000488101
1955 1015 7 31.8759 26.3866 8.6275 -0.00396552 0.00115788 0.00522534
1956 1015 6 31.6228 25.2663 8.45256 -0.00234011 0.00290196 -0.00829505
1957 1016 6 34.5546 15.0641 4.56694 -0.00312336 -0.00168561 -0.000328665
1958 1016 7 34.5594 15.733 3.61813 0.00164337 -0.00618808 -0.00347871
1959 1016 6 34.0846 15.6155 2.56584 -0.00179573 -0.0063059 -0.00191377
1960 1017 6 79.4166 51.501 14.1738 -0.000673081 0.00564191 -0.00247359
1961 1017 7 79.3353 51.9275 13.0982 0.00140988 0.00227733 -0.00396523
1962 1017 6 51.5528 4.35314 11.9833 0.00441809 -0.00157212 -0.00535206
1963 1018 6 57.6582 41.398 12.7889 0.0035069 -0.00468933 0.00178987
1964 1018 7 57.801 40.5536 12.0066 0.00142679 -0.001832 -0.00167387
1965 1018 6 58.1232 39.9839 11.0469 0.00359834 0.000183747 -0.0021415
ITEM: TIMESTEP
90000
ITEM: NUMBER OF ATOMS
57
ITEM: BOX BOUNDS xy xz yz pp pp pp
0.0000000000000000e+00 1.0131084100000001e+02 2.7630201000000000e+01
0.0000000000000000e+00 5.8491914999999999e+01 1.8420141000000001e+01
0.0000000000000000e+00 3.0080027000000001e+01 1.0634897000000000e+01
ITEM: ATOMS id mol type x y z vx vy vz
1909 1000 6 59.3638 25.9578 18.1478 -0.00152307 0.000646508 0.00342478
1910 1000 7 58.5861 26.5038 17.481 -0.000820095 0.00486674 0.00606027
1911 1000 6 57.4258 26.488 17.4532 -0.000459138 -0.00465871 -0.00359318
1912 1001 6 63.1242 38.0494 9.96897 -0.00406891 -0.000551922 0.000134704
1913 1001 7 63.0278 36.9491 9.61033 0.00239896 -0.000706327 -0.00113067
1914 1001 6 62.9586 35.8528 9.98321 -0.00659409 -0.000374164 -0.00182405
1915 1002 6 39.8517 40.6915 17.4757 0.00451717 -0.00189518 0.0039754
1916 1002 7 40.8766 40.7785 18.0118 0.00551571 -0.000361024 0.00181709
1917 1002 6 41.9996 40.845 18.2947 0.00608926 -0.000868122 -0.000340321
1918 1003 6 16.0882 26.5597 1.06352 0.00271872 -0.00284468 -0.00225207
1919 1003 7 16.4652 26.2537 2.11689 -0.00200272 -0.0070242 -0.00177639
1920 1003 6 71.2917 26.4175 3.18137 0.000794926 0.00179093 -0.0019926
1921 1004 6 8.64329 7.84746 9.34851 -0.000345763 0.00017816 0.00409627
1922 1004 7 9.47613 8.12238 10.1089 0.00109378 0.00348194 0.00132503
1923 1004 6 64.6266 8.81117 11.0372 0.000108832 -0.00123462 0.00470793
1924 1005 6 61.4195 43.167 18.7385 0.0027987 0.00264939 -0.00079964
1925 1005 7 61.3144 42.1474 19.2783 0.00353325 0.00258212 -0.000783712
1926 1005 6 61.9714 42.5469 20.1476 0.00383231 0.00283149 -0.00112436
1927 1006 6 73.2631 27.204 15.7606 -0.000745027 0.00648167 -0.00151368
1928 1006 7 72.438 26.3889 15.7979 -0.00262437 0.00845847 0.000117737
1929 1006 6 71.739 25.9991 16.6391 -0.00193381 0.0101718 0.00148545
1930 1007 6 51.6315 35.1806 22.7912 -3.14003e-05 -0.000133992 0.00110309
1931 1007 7 52.0139 34.843 23.8326 0.00339155 -0.00131261 -0.000535959
1932 1007 6 51.3451 34.0885 24.4088 0.00199188 0.00314281 0.00367353
1933 1008 6 27.6391 15.8443 7.95986 -0.000759341 0.00181337 0.0065001
1934 1008 7 27.4984 16.5409 7.04338 -0.000646538 0.00346162 0.00773553
1935 1008 6 27.7905 17.1786 6.11771 -0.00091506 0.00260191 0.00705846
1936 1009 6 28.9829 32.8357 9.82299 -0.00101538 -0.00367598 0.00428492
1937 1009 7 29.4792 33.7702 10.2986 0.000791455 0.00125185 -0.00728212
1938 1009 6 28.5639 34.2019 10.868 0.00459991 0.00353515 -0.00289146
1939 1010 6 33.9729 34.5648 12.7247 -0.00357665 -0.00197075 0.00495759
1940 1010 7 32.9964 33.9548 12.5821 -0.00295049 -0.00221236 0.00170312
1941 1010 6 32.0181 33.808 11.9763 -0.000522387 -0.00293769 -0.00204203
1942 1011 6 76.6405 55.4987 27.3143 0.00120694 -0.00283353 0.00204447
1943 1011 7 77.0852 56.5308 27.0273 -0.00298866 -0.000355532 0.00445436
1944 1011 6 49.6119 9.67806 26.4673 0.00163042 -0.00453609 -0.00174797
1945 1012 6 40.8577 39.0434 28.683 -0.000135127 0.00639263 0.00523455
1946 1012 7 41.8551 39.0348 28.0909 -0.000563737 0.00316447 0.00455979
1947 1012 6 42.8625 39.583 27.9161 0.00208013 -0.00137462 0.00556024
1948 1013 6 51.6113 7.02638 18.6903 0.00032411 -0.00343246 0.00072576
1949 1013 7 79.6362 53.7952 18.7782 -0.00196385 -0.00388611 0.00538172
1950 1013 6 79.2694 52.7691 18.3776 0.00360166 -0.00298154 -0.00203048
1951 1014 6 74.3005 43.1008 23.8424 -0.00140276 -0.00210007 -0.00305452
1952 1014 7 73.2703 43.6239 23.9418 -0.00173525 -0.00340946 0.000392204
1953 1014 6 72.4735 44.2542 24.5019 0.00125135 -0.000287113 0.00112762
1954 1015 6 37.2696 32.7026 4.62044 0.0014438 -0.00162461 -0.00210125
1955 1015 7 36.7954 32.743 5.68245 0.00420399 -0.00615014 -0.000696585
1956 1015 6 37.5565 33.2464 6.40135 -0.00065934 0.00609011 -0.00411787
1957 1016 6 30.4878 15.4447 4.97394 0.00491771 -0.00164975 -0.00657597
1958 1016 7 30.4031 16.5957 5.09951 -0.00578324 -0.00290054 -0.0023234
1959 1016 6 30.5524 17.4837 4.36759 -0.00107127 0.00177888 0.00431511
1960 1017 6 50.0214 10.0871 18.3948 -0.00158032 0.00320486 0.00399024
1961 1017 7 49.1733 10.2677 19.1653 -0.00085928 0.00339446 0.00473944
1962 1017 6 48.361 10.6088 19.9201 -0.00605323 0.00424827 -0.00123537
1963 1018 6 64.9387 43.7144 21.7606 -0.00132427 0.00977052 0.00148593
1964 1018 7 65.3467 43.1547 20.8302 -0.00130127 0.00554143 0.00403993
1965 1018 6 65.8745 42.9386 19.8182 -0.000723413 0.000823379 0.00534874
ITEM: TIMESTEP
95000
ITEM: NUMBER OF ATOMS
57
ITEM: BOX BOUNDS xy xz yz pp pp pp
0.0000000000000000e+00 1.0131084100000001e+02 2.7630201000000000e+01
0.0000000000000000e+00 5.8491914999999999e+01 1.8420141000000001e+01
0.0000000000000000e+00 3.0080027000000001e+01 1.0634897000000000e+01
ITEM: ATOMS id mol type x y z vx vy vz
1909 1000 6 58.2757 27.0237 18.1411 0.00191026 -0.00362573 -0.00102753
1910 1000 7 58.6463 27.3705 19.1851 0.0024578 -0.005993 -0.000435536
1911 1000 6 58.116 27.4759 20.2122 0.000120182 0.00259739 -0.00252446
1912 1001 6 64.3776 34.7829 8.05861 -0.00331368 0.000349266 -0.000288458
1913 1001 7 64.9197 34.1683 8.88138 0.00398857 0.00406211 -0.00232588
1914 1001 6 65.3235 33.1114 9.13743 -0.00170116 0.00305431 0.00248879
1915 1002 6 41.2549 40.8786 16.9879 -0.00321489 -0.00272964 0.000987888
1916 1002 7 41.3731 40.448 15.9174 7.04572e-05 -0.00183913 0.000992379
1917 1002 6 41.2358 39.9326 14.8874 0.00275574 0.000196539 -0.000384324
1918 1003 6 24.4538 32.3293 2.74312 0.00249963 0.00706452 -0.00358443
1919 1003 7 24.503 33.2079 3.49871 -0.00137471 0.00664983 -0.00284962
1920 1003 6 23.6998 33.7052 4.17391 -0.00374305 0.00306086 -0.00302396
1921 1004 6 91.282 52.6129 15.2223 -0.00129167 -0.00312832 0.000604079
1922 1004 7 90.5979 51.9137 15.8471 -0.00377757 -0.00211176 -0.000980398
1923 1004 6 90.7482 51.6095 16.9576 -0.00406381 -0.00631995 -0.00209441
1924 1005 6 63.9304 47.2691 17.3323 -0.00186198 -0.00406959 0.000617988
1925 1005 7 64.1008 48.201 16.6656 0.0036136 -0.00669338 -0.00165026
1926 1005 6 62.9522 48.3229 16.553 0.00440805 -0.00281663 -0.00555828
1927 1006 6 29.014 20.2655 22.667 -0.00169817 0.00406061 0.00220008
1928 1006 7 28.4674 20.6492 21.718 0.0104982 0.0028482 -0.00531327
1929 1006 6 28.0311 20.1214 20.7803 0.0062836 -0.00020746 -0.00163175
1930 1007 6 52.0357 37.8779 27.7886 -0.00517469 -0.00191786 0.00204327
1931 1007 7 52.6278 38.1902 26.8416 -0.00452585 0.000801494 0.00334584
1932 1007 6 52.223 37.7975 25.8264 -0.00406432 0.00405151 0.00190473
1933 1008 6 43.7179 32.0303 29.1621 0.00509416 -0.00629292 0.00125274
1934 1008 7 42.7207 31.4744 28.9581 0.00292749 -0.00259517 0.00176731
1935 1008 6 41.5889 31.3339 28.7388 0.0017317 0.00152919 0.00529436
1936 1009 6 28.804 34.0737 9.50728 -0.00226235 0.00816236 -0.00272225
1937 1009 7 29.0888 34.5067 10.5452 -0.000277145 0.00529617 -0.00207103
1938 1009 6 29.9952 33.8247 10.793 -0.00155435 0.00274229 -0.00442773
1939 1010 6 28.683 37.0301 9.68843 -0.00421878 0.00122852 0.0013048
1940 1010 7 28.3971 38.0406 9.1953 -0.00292549 0.000777228 -0.000369815
1941 1010 6 28.763 39.0544 8.76656 -0.00180234 0.000390751 -0.000325112
1942 1011 6 49.8262 9.91624 28.1436 0.000290361 -0.00186968 0.000881643
1943 1011 7 49.5306 10.0462 27.0296 -0.000875516 0.000739165 0.00149536
1944 1011 6 49.2146 10.5548 26.0354 -0.00117038 0.00316636 0.00283089
1945 1012 6 43.2752 40.8728 27.2367 -0.000832268 -0.000144193 -0.00222365
1946 1012 7 43.6449 41.7106 26.5247 0.00145418 0.00301868 0.00268555
1947 1012 6 43.3421 42.6692 25.9457 -0.000642196 -0.00302136 -0.00621727
1948 1013 6 83.1861 53.5101 21.2409 0.00692661 -3.81604e-05 0.00732667
1949 1013 7 83.0786 54.3707 22.0125 -0.00159101 0.00310126 0.0026387
1950 1013 6 82.6228 54.4472 23.0776 -0.000821401 0.00396965 0.00290573
1951 1014 6 73.712 49.2631 27.7322 -0.0030697 0.000315083 -0.00541396
1952 1014 7 74.1073 48.1791 27.6155 -0.00142644 0.000232675 0.000917943
1953 1014 6 74.8886 47.335 27.7667 -0.000721722 0.00196905 0.00697336
1954 1015 6 38.052 35.6865 5.98611 0.000290315 0.000562344 -0.00372108
1955 1015 7 37.845 34.7042 6.57495 -0.0048571 0.00298712 -0.00148587
1956 1015 6 38.1463 33.8067 5.9017 -0.00278685 9.27509e-05 0.00329922
1957 1016 6 33.393 17.4689 0.315272 -0.000833247 -0.00207415 -0.00101744
1958 1016 7 33.7452 18.575 0.311803 -0.00813484 0.000251868 -0.00076084
1959 1016 6 52.3019 29.9933 29.5467 -0.00226393 -0.00217173 -0.00205878
1960 1017 6 46.869 6.523 18.5125 0.00215282 -0.00483394 0.00398177
1961 1017 7 46.5386 7.14435 19.4346 0.00203019 -0.00306034 0.00274261
1962 1017 6 46.3693 7.78781 20.385 0.00186379 0.00107179 -8.45735e-05
1963 1018 6 53.5418 52.2931 21.736 0.00164702 2.15394e-05 -0.00328157
1964 1018 7 53.4403 52.5838 20.6177 -0.0003337 0.00483514 -0.00185075
1965 1018 6 53.6844 52.7345 19.4921 -0.00616373 0.000318323 -0.00371967
ITEM: TIMESTEP
100000
ITEM: NUMBER OF ATOMS
57
ITEM: BOX BOUNDS xy xz yz pp pp pp
0.0000000000000000e+00 1.0131084100000001e+02 2.7630201000000000e+01
0.0000000000000000e+00 5.8491914999999999e+01 1.8420141000000001e+01
0.0000000000000000e+00 3.0080027000000001e+01 1.0634897000000000e+01
ITEM: ATOMS id mol type x y z vx vy vz
1909 1000 6 61.5731 22.3107 17.198 0.00373529 0.00191543 -0.00226775
1910 1000 7 60.8287 22.8841 17.8794 0.00189004 -0.00156941 -0.00135112
1911 1000 6 60.6545 24.0146 18.0765 -0.00498172 -0.00230714 -0.00319308
1912 1001 6 63.462 35.0907 8.62594 -0.0018008 -0.00619778 0.00320219
1913 1001 7 64.1569 34.5032 9.34742 0.00109294 -0.00218684 0.00368112
1914 1001 6 65.2688 34.3187 9.62209 0.00208841 0.00163984 0.00222249
1915 1002 6 42.4445 41.5066 18.7707 0.00178418 -0.00155788 0.00113749
1916 1002 7 41.4859 41.35 18.1367 0.00185028 -0.000555152 0.000789927
1917 1002 6 40.7024 41.2014 17.2944 0.00301388 -0.00809642 0.00103792
1918 1003 6 73.8309 36.9437 6.55029 0.00221998 -0.00173421 -0.00495273
1919 1003 7 72.8574 37.5585 6.40989 0.00205271 -0.00172569 -0.00375572
1920 1003 6 71.8036 37.2753 6.01277 0.000305604 -0.00277245 0.00162673
1921 1004 6 62.0042 10.5347 18.8152 -0.00367601 0.00403831 -0.000995539
1922 1004 7 62.2195 11.5641 19.3066 -0.00214042 0.0020465 0.00250345
1923 1004 6 62.7815 11.7503 20.3055 0.010143 -0.00140397 -0.00376426
1924 1005 6 36.4404 8.21978 10.7267 -0.00130498 0.000463989 0.00556775
1925 1005 7 36.1393 9.33838 10.7388 0.00177307 0.00139378 -0.00379434
1926 1005 6 35.2535 9.10139 10.0274 0.00046564 -0.00230877 -0.000933001
1927 1006 6 37.1622 18.043 11.0459 0.00350045 -0.00407792 -0.00379943
1928 1006 7 36.1934 18.4411 10.5462 0.00651873 0.00307733 -0.00395134
1929 1006 6 35.4049 19.2354 10.855 0.00749783 0.00244838 0.00016638
1930 1007 6 50.9439 40.6838 28.8633 0.00321938 0.00213939 -0.00467707
1931 1007 7 49.9371 40.8729 28.3198 -0.00114457 -0.00164025 0.00209238
1932 1007 6 49.2384 39.954 28.1922 0.00268056 -0.00485517 0.00429806
1933 1008 6 30.4012 23.8001 8.12238 0.00362095 -0.00470895 0.00233651
1934 1008 7 30.4091 23.5622 6.98737 0.00374184 0.000881855 0.00116567
1935 1008 6 30.7699 23.1026 5.9836 -0.00185507 -0.00226788 0.000596351
1936 1009 6 33.5558 36.8831 11.3251 -0.00225174 0.00370505 0.00413978
1937 1009 7 32.7247 36.0807 11.2192 0.000364125 0.00085148 0.00523199
1938 1009 6 31.7905 36.7692 11.2569 -0.00162092 -0.00135119 -0.00374061
1939 1010 6 29.6309 35.6296 17.4265 0.00163539 0.00218942 -0.00855615
1940 1010 7 30.1214 34.7644 16.8293 0.00262788 -0.000326687 -0.00409559
1941 1010 6 30.0989 34.1008 15.8781 0.00479118 -0.00367866 -0.00180808
1942 1011 6 58.3776 45.8141 1.37641 0.00269797 -0.00215306 0.00122396
1943 1011 7 58.5029 46.7917 0.76486 0.00412936 0.000563316 0.00585923
1944 1011 6 30.6574 -0.00627112 0.341866 6.91709e-05 -0.00153999 0.0026596
1945 1012 6 41.0219 37.7778 26.959 0.000788511 -0.00314532 0.00249626
1946 1012 7 40.0619 37.1952 26.6685 -9.67234e-05 -0.00107446 0.00126905
1947 1012 6 39.5382 36.5787 25.8369 -0.00207228 0.00367152 -0.0010056
1948 1013 6 51.9204 12.9307 23.8034 0.00506502 0.00306088 -0.00363983
1949 1013 7 52.307 13.6506 24.6279 -9.20459e-05 -0.00386976 0.00482921
1950 1013 6 51.8133 14.4844 25.2674 -0.000482122 0.00115289 -0.00202088
1951 1014 6 73.2823 48.6375 27.2837 -0.000517265 0.000805302 8.02689e-07
1952 1014 7 72.2304 48.1523 27.2283 0.0011208 -0.00281742 0.000628445
1953 1014 6 71.2649 47.7065 27.6918 -0.00232182 0.00524716 0.00121378
1954 1015 6 32.5768 28.7953 6.66787 -0.00229402 -0.00058299 -0.000965416
1955 1015 7 32.6397 28.4385 5.56188 0.004174 0.00368494 -0.0019746
1956 1015 6 33.5294 27.6973 5.46926 0.00258618 0.00139493 0.00110094
1957 1016 6 51.6773 27.6806 29.4904 0.00231116 0.000287194 -0.00377572
1958 1016 7 50.9949 26.9967 28.8467 0.00369377 0.00154712 -0.00658038
1959 1016 6 50.2034 27.2162 28.0271 -0.00231612 0.00370424 -0.00019921
1960 1017 6 70.0117 48.2394 12.714 -0.0081036 -0.00434768 -0.00501525
1961 1017 7 69.3647 49.1185 12.3215 -2.91833e-05 0.00154983 -0.00511514
1962 1017 6 68.636 49.8834 11.8421 0.00222842 0.00724183 0.000535963
1963 1018 6 24.1444 9.19718 18.2365 0.00308965 -0.00566769 -0.00390738
1964 1018 7 24.4481 9.51494 17.1632 0.00072948 0.00557154 -0.00124804
1965 1018 6 24.3895 9.9194 16.0758 -0.00501094 0.00209277 -0.00223247
ITEM: TIMESTEP
105000
ITEM: NUMBER OF ATOMS
57
ITEM: BOX BOUNDS xy xz yz pp pp pp
0.0000000000000000e+00 1.0131084100000001e+02 2.7630201000000000e+01
0.0000000000000000e+00 5.8491914999999999e+01 1.8420141000000001e+01
0.0000000000000000e+00 3.0080027000000001e+01 1.0634897000000000e+01
ITEM: ATOMS id mol type x y z vx vy vz
1909 1000 6 55.083 26.4178 17.6558 0.00373314 -0.00102465 -0.00118425
1910 1000 7 55.7536 27.2718 18.066 0.000371215 -0.00183597 0.00600121
1911 1000 6 56.9033 27.3816 18.1818 0.000201651 0.00363774 0.00249379
1912 1001 6 64.1752 29.8116 16.6947 -0.00203194 -0.00587557 -0.00156651
1913 1001 7 63.8444 30.1973 15.6504 -0.00234223 -0.00293748 -0.000383194
1914 1001 6 64.1415 30.2144 14.5292 -0.00411618 -0.00214993 -0.000841153
1915 1002 6 46.7999 38.5691 20.5563 -0.00109087 0.00306171 -0.00224899
1916 1002 7 46.3098 37.5355 20.7483 0.000957956 0.00210839 -0.0021523
1917 1002 6 45.9003 36.5471 21.1964 -0.000421958 0.00306008 -0.00131405
1918 1003 6 24.2732 35.3842 2.80299 -0.00152323 -0.00151378 0.00031874
1919 1003 7 23.7368 35.5069 1.7819 -0.00263947 -0.00177357 0.000873921
1920 1003 6 22.6652 35.8519 1.49752 -0.00232683 3.47642e-06 0.00185221
1921 1004 6 84.8117 52.8962 20.1083 -0.00697674 0.00254376 -0.00266729
1922 1004 7 84.4445 51.8927 20.5617 -0.00209637 0.00615794 0.00928457
1923 1004 6 83.3497 51.5071 20.5939 0.00151947 -0.00469836 0.00219442
1924 1005 6 34.3793 22.5804 9.2653 0.0018876 -0.0036287 -0.00444878
1925 1005 7 35.2793 23.2519 8.98032 0.00395677 -0.00225429 0.00532418
1926 1005 6 35.9647 22.3155 8.96365 0.00455158 -0.0018666 0.00800542
1927 1006 6 34.2241 22.2381 20.045 -0.0029538 0.00159484 0.00319317
1928 1006 7 33.9911 22.5175 18.943 0.00343187 -0.00176865 0.000989607
1929 1006 6 33.9656 21.9096 17.9541 -0.00624714 -0.00808434 0.00512083
1930 1007 6 48.8768 38.8231 27.2065 0.000821452 0.00729296 0.00153185
1931 1007 7 49.7083 39.324 27.8409 0.00250748 0.0026682 0.00297334
1932 1007 6 50.0542 38.7469 28.7875 -0.00104066 -0.000135467 0.00256031
1933 1008 6 40.411 17.3251 18.3806 -0.00049431 -0.0056875 0.00219115
1934 1008 7 40.9301 17.4534 17.3515 0.00448094 -0.00216785 0.0051402
1935 1008 6 41.2064 17.9446 16.336 -0.00119404 -0.00554835 0.00196107
1936 1009 6 31.4362 41.4587 16.7604 -0.00131892 -0.003077 -0.00138876
1937 1009 7 30.8998 40.5034 16.3789 -0.00621027 8.28175e-06 -0.00223627
1938 1009 6 31.0107 40.6677 15.2348 -0.0085032 0.00223477 -0.0021388
1939 1010 6 33.8034 34.6948 16.1627 -0.00457257 0.000916179 -0.00101254
1940 1010 7 33.1563 35.5132 15.6553 -0.00213308 0.00501028 0.00248036
1941 1010 6 32.2119 36.1842 15.7127 -0.000119743 0.00759828 0.00535579
1942 1011 6 79.7649 56.2263 26.405 0.00106136 -0.000962667 0.00474499
1943 1011 7 78.7004 55.7659 26.4173 0.00177289 -0.00270839 0.000996218
1944 1011 6 77.6313 55.4956 26.779 0.00165373 -0.00608219 -0.00187761
1945 1012 6 42.2813 38.4782 28.0547 -0.002198 -0.00261409 -0.00373839
1946 1012 7 41.3172 37.8396 28.145 -0.00342358 -0.000501885 -0.00188535
1947 1012 6 40.4666 37.3128 27.5577 -0.00280688 -0.00305 -0.000493095
1948 1013 6 58.5013 12.0376 24.9948 0.0009652 0.00432133 0.00388345
1949 1013 7 58.5463 12.4435 23.9082 -0.000119302 -0.00443449 0.000568209
1950 1013 6 59.4112 12.7429 23.1939 -0.00133807 0.00277144 0.00211283
1951 1014 6 72.0521 48.4806 26.839 -0.00406107 0.000612168 -0.00205492
1952 1014 7 71.1353 48.7898 26.1996 -0.00251546 -0.00357702 -0.00629611
1953 1014 6 70.0229 48.7253 25.877 -0.00216027 -0.0044383 -0.00734903
1954 1015 6 41.3412 30.3694 6.59251 -0.000935788 0.00153652 0.00539737
1955 1015 7 40.2171 30.403 6.8919 -0.00178935 0.00603013 0.00168734
1956 1015 6 39.6116 29.81 6.09731 -0.000854986 0.00358843 0.00279752
1957 1016 6 60.2381 21.2548 19.3216 0.00587991 -0.000177152 -0.00282412
1958 1016 7 59.9149 20.5599 18.4496 0.00352408 -0.00227399 -0.000280122
1959 1016 6 60.2679 19.5101 18.1032 0.00358226 -0.00248847 0.000428959
1960 1017 6 73.2215 47.7018 8.66499 -0.0007776 0.00445235 -0.00176286
1961 1017 7 74.0175 47.3968 7.87835 0.000116342 0.00706592 -0.00187158
1962 1017 6 74.6899 47.0949 6.98234 0.000137229 0.00490257 -0.00112695
1963 1018 6 49.2626 50.7313 15.063 -0.00483091 0.00288482 -0.000280173
1964 1018 7 49.4634 50.7384 16.2053 -0.00455622 0.000846657 -0.000315806
1965 1018 6 49.3677 50.9715 17.3393 -0.0018356 0.00201898 -0.000327201
ITEM: TIMESTEP
110000
ITEM: NUMBER OF ATOMS
57
ITEM: BOX BOUNDS xy xz yz pp pp pp
0.0000000000000000e+00 1.0131084100000001e+02 2.7630201000000000e+01
0.0000000000000000e+00 5.8491914999999999e+01 1.8420141000000001e+01
0.0000000000000000e+00 3.0080027000000001e+01 1.0634897000000000e+01
ITEM: ATOMS id mol type x y z vx vy vz
1909 1000 6 53.6178 24.003 19.6505 -0.00302931 0.0038555 0.000624913
1910 1000 7 54.3355 23.0912 19.6198 -0.00235853 0.004478 -0.00218208
1911 1000 6 54.1536 21.9515 19.4969 -0.00266483 0.00333041 0.00890747
1912 1001 6 65.5782 31.4472 18.3416 -0.000722719 -0.00757473 0.00518071
1913 1001 7 66.6697 31.6719 18.668 0.000512042 -0.00621179 0.000113374
1914 1001 6 67.3754 31.7101 19.5879 0.00288882 0.00202157 -0.002052
1915 1002 6 50.3767 34.6078 21.9729 -0.000994535 -0.00423286 0.00152596
1916 1002 7 49.3328 34.8312 21.5192 0.000378949 -0.00280951 -0.000933194
1917 1002 6 48.1999 34.937 21.2943 0.00102967 0.00172464 -0.00207684
1918 1003 6 24.3864 35.2574 2.32779 -0.00454779 0.0016767 -0.0010724
1919 1003 7 23.6038 34.5284 1.87891 -0.000115505 -0.00284403 -0.00145798
1920 1003 6 23.1946 33.5024 2.23687 0.00474812 -0.0046375 -0.0010392
1921 1004 6 82.5405 53.8938 29.6003 0.00633049 -0.0028335 0.00755629
1922 1004 7 63.3099 43.6566 0.249897 0.00112206 0.000189469 0.000123321
1923 1004 6 62.8124 44.7055 0.22696 0.000365196 -0.000359142 -0.00854908
1924 1005 6 32.9917 20.2612 10.6435 -0.000241486 -0.00293202 0.000536252
1925 1005 7 33.5473 19.3839 10.1298 0.00843537 0.00358599 -0.00121072
1926 1005 6 33.7617 18.9181 11.171 -0.00395201 -0.0065189 -0.00318047
1927 1006 6 30.2748 18.1416 24.098 0.00103905 0.000101795 0.00601283
1928 1006 7 30.2715 18.2556 22.9432 -0.0107175 -0.00275626 0.00576454
1929 1006 6 30.6649 17.5927 22.0749 0.00255 0.00678615 0.00449055
1930 1007 6 49.2825 39.3775 27.503 0.00216726 0.00200291 -0.0006343
1931 1007 7 49.9794 38.7809 26.7937 0.00260448 -0.00102539 0.00234265
1932 1007 6 50.7815 38.1113 27.3006 0.00171602 0.000455377 0.00570495
1933 1008 6 43.0744 12.4576 19.9837 -0.000858411 -0.00272187 -0.000360733
1934 1008 7 44.122 12.3649 20.4723 -8.37421e-05 -0.00575248 -0.00259665
1935 1008 6 44.9768 11.9116 21.1149 -0.00190497 -0.00525662 0.000175772
1936 1009 6 77.1409 33.2516 17.9318 0.00158417 -0.00561184 -0.00193524
1937 1009 7 77.1531 32.1414 18.2679 8.47628e-05 -0.00214648 0.00956607
1938 1009 6 76.0146 31.9174 18.2239 0.00136172 -0.00592465 -0.00422224
1939 1010 6 83.5795 42.2882 17.3321 -0.00480244 -0.00167953 0.00309629
1940 1010 7 84.2396 41.7106 18.0913 2.51359e-05 -0.000579888 -0.000264707
1941 1010 6 84.5395 41.5533 19.2008 0.00494267 -0.00104188 -0.0016593
1942 1011 6 56.3764 10.3525 25.7638 0.00898842 0.00103962 -0.00765244
1943 1011 7 56.0719 9.61725 24.92 -0.00471607 -0.00373036 0.00144996
1944 1011 6 55.561 9.20285 23.9639 -0.00436138 -0.00284579 0.000877046
1945 1012 6 42.5965 41.1654 26.5342 0.00501543 -0.00290881 -0.00227772
1946 1012 7 43.0344 42.2212 26.3366 0.00112099 -0.000829978 0.000200458
1947 1012 6 43.1649 43.2921 26.7633 0.0024161 -0.00303447 0.00533613
1948 1013 6 38.4185 6.43885 1.80326 0.00165416 -0.00151128 0.00367633
1949 1013 7 38.5374 6.62804 0.664097 -0.00140103 -0.00432115 0.00289092
1950 1013 6 56.211 17.3616 29.8604 -0.0040555 -0.00154244 0.0054435
1951 1014 6 74.8185 49.0288 27.0715 5.09657e-05 0.000291792 0.000343969
1952 1014 7 75.5446 48.5215 26.3229 0.001017 -0.00357093 0.00389865
1953 1014 6 76.5448 48.0148 26.025 0.0047316 0.00266191 0.00576909
1954 1015 6 38.932 26.9178 3.43346 0.000600379 -0.00148209 -0.00337582
1955 1015 7 39.2607 27.6034 4.31458 0.000229855 -0.00554278 -7.79981e-05
1956 1015 6 40.378 27.3861 4.54671 0.00322561 0.0014005 -0.00799839
1957 1016 6 58.1568 22.308 18.6404 0.000496739 -0.00336424 -0.00567601
1958 1016 7 58.0737 23.2572 19.3035 0.00271826 -0.00782438 0.000986248
1959 1016 6 57.2103 24.0049 19.5089 0.00745751 -0.00172519 -0.00129313
1960 1017 6 68.4115 51.3763 16.5934 0.00112729 -0.00576747 0.00550877
1961 1017 7 67.5451 50.9779 17.2537 -0.00147221 -0.00231856 0.00417923
1962 1017 6 66.7667 50.6344 18.0425 0.000193553 -0.00743552 0.00359478
1963 1018 6 51.3628 49.1269 11.2687 -0.000232153 0.00122535 -0.00073539
1964 1018 7 51.1345 49.1108 12.4058 0.00745584 0.00149369 0.000811721
1965 1018 6 50.9909 48.7347 13.4954 -0.00172369 -0.00169724 -0.00149916
ITEM: TIMESTEP
115000
ITEM: NUMBER OF ATOMS
57
ITEM: BOX BOUNDS xy xz yz pp pp pp
0.0000000000000000e+00 1.0131084100000001e+02 2.7630201000000000e+01
0.0000000000000000e+00 5.8491914999999999e+01 1.8420141000000001e+01
0.0000000000000000e+00 3.0080027000000001e+01 1.0634897000000000e+01
ITEM: ATOMS id mol type x y z vx vy vz
1909 1000 6 51.9131 28.479 23.1034 -0.00478444 0.00397292 0.00313297
1910 1000 7 51.689 29.5875 22.8419 0.00370398 0.00489006 -0.000255594
1911 1000 6 52.1194 30.5906 23.2366 0.00310531 0.0030852 0.00498504
1912 1001 6 64.5174 30.2048 17.6686 -0.000441598 0.00338662 -0.00526598
1913 1001 7 64.9166 31.186 18.1444 0.00103716 0.00219323 -0.00404581
1914 1001 6 65.2794 32.2592 17.8949 -0.00226771 0.00373048 -0.0022388
1915 1002 6 47.2962 38.6778 20.8276 0.00106341 -0.000312946 -0.0035196
1916 1002 7 46.9778 37.9199 21.646 0.00111099 -0.000577254 -0.00374588
1917 1002 6 46.4801 37.3564 22.5292 0.00331931 0.000441785 -0.00185159
1918 1003 6 22.2565 35.8609 3.1009 -0.00317419 0.00355706 -0.00513267
1919 1003 7 77.6883 36.677 3.90715 -0.000557298 0.00479054 -0.00693736
1920 1003 6 77.0412 37.5729 4.2634 -0.00292356 0.000579503 -0.00064499
1921 1004 6 35.939 3.2176 6.22102 0.00527694 -0.0012311 0.000175326
1922 1004 7 35.7655 2.29664 5.53608 0.00315948 0.00127553 -0.0026588
1923 1004 6 36.1548 2.15772 4.45099 0.00286784 0.00370558 -0.00307455
1924 1005 6 31.7965 17.6375 16.651 -0.00158456 0.0027775 0.00630472
1925 1005 7 31.5728 18.141 15.632 0.000320518 -0.000159199 0.00443516
1926 1005 6 30.5038 17.6895 15.6505 0.000126688 0.000280293 0.00396385
1927 1006 6 62.1927 18.4054 1.00329 -0.00447498 -0.00418598 0.0010859
1928 1006 7 62.072 17.6194 1.84847 -0.00518874 -0.0024149 0.00263092
1929 1006 6 61.7353 16.5083 1.86249 -0.000572371 -0.00379607 0.00402451
1930 1007 6 30.2932 28.0418 1.02565 0.00292471 0.00276583 0.00128631
1931 1007 7 29.3185 27.5494 1.41586 0.00311221 0.00434497 0.00374757
1932 1007 6 29.3692 27.0696 2.47227 0.00546365 0.00280998 0.00293762
1933 1008 6 51.7513 6.58289 8.75714 0.00813914 0.00373981 0.00304856
1934 1008 7 51.6209 6.04521 9.77635 0.000918115 0.00312556 0.0018006
1935 1008 6 51.5809 5.9134 10.9296 0.0050407 -0.000344431 0.00154692
1936 1009 6 63.9164 21.723 4.33142 0.00284302 -0.000717267 0.00760148
1937 1009 7 64.2372 22.7446 3.88496 0.00238861 -0.00240118 0.0034219
1938 1009 6 63.9778 23.4338 4.7827 -0.00593439 0.00228312 -0.00257962
1939 1010 6 83.7252 39.4809 21.3798 -0.00347797 0.00360158 -0.00281286
1940 1010 7 83.9109 39.0782 20.3078 0.000792426 0.00090891 -0.00106135
1941 1010 6 84.6571 38.9543 19.4283 0.00124453 0.00747011 -0.00160153
1942 1011 6 79.754 55.7153 28.5106 1.11631e-06 0.00346247 0.000834946
1943 1011 7 78.601 55.8372 28.5423 -0.000290241 -0.00111407 0.00783966
1944 1011 6 77.5549 56.2708 28.7968 3.17199e-05 0.00221788 0.00348604
1945 1012 6 42.574 39.7129 27.4632 0.00176583 0.000310504 0.00164687
1946 1012 7 41.7061 38.9779 27.691 0.00137227 -0.000222228 -0.00157212
1947 1012 6 41.4011 38.0122 28.2569 0.000120296 -0.000956556 -0.00349981
1948 1013 6 33.7902 6.27713 9.28493 -0.000301875 -0.00249824 0.00487228
1949 1013 7 34.9318 6.21468 9.08372 -0.000755042 -0.00521723 0.00314507
1950 1013 6 35.8373 5.81431 9.69018 -4.48575e-05 -0.00186377 0.0042986
1951 1014 6 72.5286 48.7002 26.8555 0.00293171 0.000612531 0.00311361
1952 1014 7 71.485 48.3313 26.5096 0.00253321 0.00362014 0.00110844
1953 1014 6 70.765 47.768 25.7952 0.00361593 -0.00394387 0.00598136
1954 1015 6 34.2196 30.0113 6.2058 -0.00192278 0.00243813 0.00112562
1955 1015 7 34.7608 29.8758 5.18445 -0.00298581 0.00142332 0.00069689
1956 1015 6 34.63 30.8539 4.57143 -0.00163758 0.00166864 0.000800498
1957 1016 6 61.6887 21.8098 17.8155 0.000976685 5.18156e-05 -0.00080746
1958 1016 7 61.2699 22.3064 18.7777 -0.000417192 -0.00141115 -0.000659045
1959 1016 6 60.2908 22.8857 19.0062 -0.00106562 -0.00236366 -0.00102243
1960 1017 6 70.4737 37.2569 10.8206 0.00566374 -0.00392214 -0.00409577
1961 1017 7 70.9439 38.2157 11.2735 0.00178215 -0.0024699 -0.00313999
1962 1017 6 71.2964 39.2567 11.6451 -0.000607469 -0.00117445 -0.00450282
1963 1018 6 49.4908 51.1478 16.0512 0.00197541 -0.00135817 0.00246082
1964 1018 7 49.1963 50.1717 15.4982 0.00573031 -0.0032546 0.00380826
1965 1018 6 49.0588 49.3785 14.6608 -0.00527015 0.00139158 0.00121292
ITEM: TIMESTEP
120000
ITEM: NUMBER OF ATOMS
57
ITEM: BOX BOUNDS xy xz yz pp pp pp
0.0000000000000000e+00 1.0131084100000001e+02 2.7630201000000000e+01
0.0000000000000000e+00 5.8491914999999999e+01 1.8420141000000001e+01
0.0000000000000000e+00 3.0080027000000001e+01 1.0634897000000000e+01
ITEM: ATOMS id mol type x y z vx vy vz
1909 1000 6 45.2088 26.6224 24.7254 0.00198781 0.00144767 0.000126377
1910 1000 7 44.2078 27.119 25.0396 0.00561048 0.00255085 0.00992498
1911 1000 6 43.2934 26.7324 25.6411 -3.75173e-06 -0.00474021 -0.00329589
1912 1001 6 65.0183 30.6757 17.132 -0.000676706 0.00304375 -0.000710361
1913 1001 7 64.016 31.2579 17.2025 -0.000255364 0.00393243 -0.00205908
1914 1001 6 62.9201 31.1797 17.5747 -0.00139754 0.00414251 -0.00537808
1915 1002 6 43.5782 35.9609 20.8745 0.00239659 -0.0023627 -0.00211319
1916 1002 7 44.3413 36.438 21.6063 0.00134202 -0.00175318 -0.00141079
1917 1002 6 45.249 36.6912 22.2824 0.00168602 0.000233994 -0.00261674
1918 1003 6 39.9494 47.6374 27.3588 -0.00458347 -0.000537978 -0.00286515
1919 1003 7 39.6462 48.4171 28.1623 -0.000485683 -0.000807012 -0.00105771
1920 1003 6 93.9231 48.5872 28.7555 0.000878766 0.00210635 0.000369276
1921 1004 6 60.4766 14.9598 27.7414 0.00951437 0.000869656 -0.00330355
1922 1004 7 59.7288 15.0889 26.8631 0.00119289 0.00454248 0.00432187
1923 1004 6 59.9717 15.4878 25.8 -0.00591128 -0.00505572 -0.000902826
1924 1005 6 24.6406 18.0117 12.5268 0.00186873 -0.00196316 -0.0053817
1925 1005 7 24.4964 17.7063 13.635 0.00115558 0.00637976 -0.0031757
1926 1005 6 23.3491 17.6588 13.4661 0.00128802 0.00481277 -0.00363497
1927 1006 6 61.6024 21.1257 14.8983 0.00199947 0.0117506 0.000679679
1928 1006 7 61.0269 20.9738 15.8945 0.0043799 -0.00304156 -0.000199616
1929 1006 6 61.2533 21.2563 16.9977 -0.0019143 -0.00230292 0.000903016
1930 1007 6 33.7467 27.8507 1.25605 0.00223569 0.0011913 -0.00436948
1931 1007 7 32.8712 27.336 0.6962 -8.79265e-05 0.00275168 -0.00217037
1932 1007 6 51.3814 37.9118 29.6199 0.000700568 -0.00459139 -0.00173335
1933 1008 6 70.2459 31.4793 26.3061 0.00325565 0.00194518 -0.00412618
1934 1008 7 70.9519 30.71 26.8108 -0.000792855 -0.000348566 -0.00195942
1935 1008 6 71.5122 29.7062 26.9767 0.00702143 0.00289488 -0.00872615
1936 1009 6 61.419 18.0472 2.92179 -0.00377082 -0.00519912 0.00224376
1937 1009 7 60.4 17.5107 3.06191 -0.00594882 -0.00231048 -0.00253554
1938 1009 6 59.698 18.4356 3.06852 -0.00181798 0.00073899 0.00942853
1939 1010 6 79.5127 36.4797 20.6648 0.00123866 -0.0064831 0.000229624
1940 1010 7 79.5095 35.3381 20.4586 0.0036935 -0.00628232 -0.00092015
1941 1010 6 79.5762 34.2673 20.8998 0.00793333 -0.00655027 -0.00221133
1942 1011 6 77.9808 47.7102 24.7148 -0.00669526 -0.00145349 -0.0027576
1943 1011 7 78.4093 48.786 24.6489 -0.0046101 -0.00199607 0.00194558
1944 1011 6 78.5546 49.8848 24.3048 0.0039393 -0.00374549 -3.25773e-05
1945 1012 6 41.1476 38.7338 27.1781 0.00188503 0.000946689 -0.00358899
1946 1012 7 40.5881 37.8995 27.7581 -0.00391853 0.00714199 -0.000275972
1947 1012 6 39.8094 37.0433 27.6777 0.00433146 -0.000276256 -0.00117399
1948 1013 6 53.6821 50.0852 9.34392 -0.00388887 0.000495461 0.00465913
1949 1013 7 53.0119 50.4899 10.201 -0.00337849 0.00219712 0.00425477
1950 1013 6 52.0661 50.0902 10.743 -0.00599132 0.00561024 0.00221243
1951 1014 6 69.4431 49.0218 25.2505 0.00044544 0.00199168 -0.00154909
1952 1014 7 70.4261 48.5475 25.6427 0.00047546 0.000765594 -0.0031071
1953 1014 6 71.1839 48.2616 26.4732 0.00208916 0.00102545 -0.0044902
1954 1015 6 33.8434 27.3366 4.30624 -0.000535065 0.00734964 0.00147651
1955 1015 7 34.802 27.9917 4.22719 8.93917e-05 0.00625437 -2.88102e-05
1956 1015 6 34.9668 28.5192 5.24905 0.004815 0.00255146 0.00112067
1957 1016 6 58.6016 27.4099 19.8055 -0.00352258 -0.00102397 -0.00315947
1958 1016 7 59.4133 26.6879 19.3961 -0.00254249 -7.69007e-05 -0.00288643
1959 1016 6 59.3807 25.8106 18.6373 -0.00202448 -0.00265244 6.92317e-05
1960 1017 6 69.7611 34.8639 15.2217 -0.00472795 0.00330234 0.00159726
1961 1017 7 70.2112 35.1879 14.2029 0.00131787 0.0034412 0.00431252
1962 1017 6 70.5327 35.6148 13.1731 0.00479052 4.04699e-05 0.00398677
1963 1018 6 49.3082 50.4161 13.3582 0.000665365 0.000543719 0.0096111
1964 1018 7 49.908 49.4324 13.492 -0.000103622 -0.00102867 0.00149778
1965 1018 6 50.7206 48.6119 13.3666 0.00137628 0.0010441 -0.002476
ITEM: TIMESTEP
125000
ITEM: NUMBER OF ATOMS
57
ITEM: BOX BOUNDS xy xz yz pp pp pp
0.0000000000000000e+00 1.0131084100000001e+02 2.7630201000000000e+01
0.0000000000000000e+00 5.8491914999999999e+01 1.8420141000000001e+01
0.0000000000000000e+00 3.0080027000000001e+01 1.0634897000000000e+01
ITEM: ATOMS id mol type x y z vx vy vz
1909 1000 6 23.2787 24.0149 5.2901 -0.00358778 0.0037496 -0.0010396
1910 1000 7 22.8492 24.6207 6.18222 0.00237322 0.00405465 0.00162268
1911 1000 6 22.9214 24.4838 7.33258 8.06696e-05 -0.00235473 0.00100355
1912 1001 6 63.3407 30.786 18.0453 0.00228123 5.19038e-05 -0.00265223
1913 1001 7 62.5549 31.6278 17.8957 -0.000513603 -0.0021395 -0.00030108
1914 1001 6 62.3817 32.7689 18.0124 -0.00412564 -0.00296317 0.00239305
1915 1002 6 45.7636 40.0259 21.2729 -0.00116822 0.00150286 -0.00425141
1916 1002 7 46.0667 38.9996 21.7204 -0.00188858 0.00213363 -0.00231692
1917 1002 6 46.1109 37.9697 22.2521 -0.00227299 0.00366894 0.000688796
1918 1003 6 73.7868 38.5929 0.187153 0.00336066 0.00101005 0.00173047
1919 1003 7 92.569 49.4561 29.1891 0.00609396 -0.000556998 0.00231652
1920 1003 6 91.9991 49.7068 28.209 0.00855494 -0.00248478 0.000392508
1921 1004 6 60.0505 13.7667 29.3543 -0.00500732 0.0042872 0.000876715
1922 1004 7 42.432 2.56381 -0.107448 -0.00273189 -0.000963532 -0.0068966
1923 1004 6 43.4132 3.00703 0.327398 -0.00581534 -0.00233601 0.0014599
1924 1005 6 24.9895 17.5236 12.271 0.00575498 0.00560883 0.00542635
1925 1005 7 24.6154 18.3695 12.9685 0.00127884 0.00642924 0.00203027
1926 1005 6 23.8405 18.6824 12.1632 0.00132013 0.000684039 -0.00024168
1927 1006 6 57.3556 23.6079 9.04261 -0.00315959 0.000758971 -0.0047632
1928 1006 7 56.3742 23.0797 8.71902 -0.00426729 -0.00405791 0.00645779
1929 1006 6 56.1197 21.9906 8.4073 -0.00102722 -0.00357108 0.00211142
1930 1007 6 35.9123 27.3194 2.20187 -0.000501508 -0.00341514 0.00220511
1931 1007 7 36.3883 26.2804 2.00517 -0.00358466 -0.00458403 0.000918403
1932 1007 6 36.3861 25.5343 2.89517 -0.000210049 -0.00347228 0.00185884
1933 1008 6 61.493 30.7324 2.3671 -0.00427885 0.000282356 0.00747247
1934 1008 7 61.8888 29.6798 2.65007 -0.00092582 0.00043837 0.00336207
1935 1008 6 62.1201 28.5473 2.53629 0.00104574 0.00120878 -0.000298799
1936 1009 6 74.1532 32.1181 27.4829 -0.00191933 -0.00404189 0.000173514
1937 1009 7 73.4675 32.4523 28.3569 -0.00102033 0.00104068 -0.0010641
1938 1009 6 72.9879 31.429 28.6236 -0.00210984 0.00291892 0.00418457
1939 1010 6 34.9577 42.0511 10.9681 0.00303519 1.01649e-05 0.00193796
1940 1010 7 36.058 41.7404 11.1645 0.00375902 0.00318487 0.00290641
1941 1010 6 36.7892 40.9109 11.5153 0.00603876 0.00441536 0.00106406
1942 1011 6 61.0983 35.8424 2.5047 -0.00635434 -0.00402558 0.00332052
1943 1011 7 60.286 36.5903 2.85982 -0.001216 0.00174745 0.00291578
1944 1011 6 59.541 37.1447 3.55586 -0.00367807 0.00141357 0.000546549
1945 1012 6 39.3554 40.9048 24.9293 -0.0048774 -0.00199857 0.00463901
1946 1012 7 39.3104 42.0409 25.1588 -0.00819426 -0.000595447 -0.00295876
1947 1012 6 39.6318 43.097 24.8019 0.00188586 -0.00321607 -0.00163347
1948 1013 6 21.7378 7.3721 15.4737 -0.00516926 -0.00274889 -0.00164659
1949 1013 7 22.6454 6.65121 15.4095 -0.00227363 0.000551804 0.00222941
1950 1013 6 23.5308 6.53277 14.6679 -0.00245777 -0.000650554 0.00220159
1951 1014 6 74.2202 48.0142 29.8165 -0.00287419 -0.00095571 0.00040061
1952 1014 7 73.8355 48.6323 28.9138 -0.00179413 0.000624314 0.00102224
1953 1014 6 73.9542 49.1555 27.8852 -0.000796556 0.00170808 0.00168849
1954 1015 6 37.0839 32.3724 6.841 -0.00367418 -0.00298929 -0.0026534
1955 1015 7 36.0488 32.8661 6.64309 -0.00227629 0.00131655 0.000775471
1956 1015 6 35.8658 32.879 5.49593 -0.00784554 -0.00164536 0.00163042
1957 1016 6 65.4614 26.0049 12.3272 -0.00195964 -0.00336236 0.000218066
1958 1016 7 64.8302 26.8841 12.7471 0.00137181 -0.00111801 0.000527251
1959 1016 6 63.928 27.4807 12.3268 0.00263275 0.00140986 0.00140885
1960 1017 6 70.1424 39.5205 16.4922 -0.00350335 -0.00259821 0.00156382
1961 1017 7 69.8841 39.9306 15.4384 -0.00180948 -0.00350685 0.000794982
1962 1017 6 69.7852 40.382 14.3742 -0.00078999 -0.00141837 0.0015862
1963 1018 6 58.0998 50.5407 12.6116 0.00504037 0.0029236 -0.00521482
1964 1018 7 58.5865 49.5464 12.2652 0.00449827 -0.000224123 0.00305797
1965 1018 6 58.719 48.4383 11.943 0.00173672 0.00078695 -0.00155564
ITEM: TIMESTEP
130000
ITEM: NUMBER OF ATOMS
57
ITEM: BOX BOUNDS xy xz yz pp pp pp
0.0000000000000000e+00 1.0131084100000001e+02 2.7630201000000000e+01
0.0000000000000000e+00 5.8491914999999999e+01 1.8420141000000001e+01
0.0000000000000000e+00 3.0080027000000001e+01 1.0634897000000000e+01
ITEM: ATOMS id mol type x y z vx vy vz
1909 1000 6 38.1935 35.1492 27.5959 0.00143488 -0.00217543 -0.00216381
1910 1000 7 38.7026 36.0744 28.0777 0.00118304 -0.00166939 -0.00286957
1911 1000 6 38.7178 37.1998 27.7938 -0.000893039 -0.0015479 -0.00249929
1912 1001 6 69.7793 33.4469 19.613 0.00311258 -0.0038528 -0.00070128
1913 1001 7 70.0534 32.6867 18.779 0.00389695 -0.000579691 -0.00342696
1914 1001 6 70.8946 31.9811 18.4046 0.00241961 -0.00271718 -0.00271827
1915 1002 6 42.3476 38.4126 19.7768 -0.00183902 0.00296984 0.00352117
1916 1002 7 43.2198 39.1687 19.8908 -0.00101406 0.00229762 0.00166931
1917 1002 6 44.0441 39.8909 20.2708 0.00068737 0.00127058 -6.98368e-05
1918 1003 6 43.5427 45.6331 28.6628 0.00410599 0.00061807 0.00244038
1919 1003 7 42.6754 45.5917 29.432 0.00579759 -1.82628e-05 0.00431342
1920 1003 6 23.9157 35.6871 0.18831 0.00300422 0.00289463 0.000635319
1921 1004 6 62.1813 9.85564 25.8814 0.00476884 0.0112172 0.00582667
1922 1004 7 61.9287 9.68702 27.0017 -0.000520993 -0.00270729 0.00253817
1923 1004 6 88.4985 57.4577 27.4669 -0.00286362 6.09239e-05 -0.00228751
1924 1005 6 23.1962 16.8355 12.3857 0.00475755 -0.00102513 0.000561735
1925 1005 7 22.6581 17.0407 13.3909 0.00201407 -0.0003011 -0.00105477
1926 1005 6 23.5913 17.6203 13.7651 0.00117887 -0.000451364 0.00126042
1927 1006 6 51.8858 18.7356 10.7935 0.00274496 -0.000217515 -0.00414338
1928 1006 7 52.9211 18.5613 10.2991 0.0030702 -0.00175048 -0.00292192
1929 1006 6 54.0061 18.8473 10.5976 0.00275813 0.000269395 -0.00372316
1930 1007 6 55.952 39.4097 25.7588 0.00304275 -0.00395757 -0.00298018
1931 1007 7 57.0759 39.2773 25.5056 0.0044116 -0.000330117 0.00119998
1932 1007 6 57.5206 38.2169 25.6685 0.0069817 0.000854068 0.00189153
1933 1008 6 76.6223 43.5001 27.2733 0.00630953 -0.00163218 0.00662679
1934 1008 7 76.4864 42.9954 26.2381 0.00382174 0.000640005 0.00584578
1935 1008 6 76.3191 42.1437 25.4664 0.00523658 0.00188013 0.00417033
1936 1009 6 58.1675 13.9064 2.26931 -0.00173155 -2.40186e-05 -0.00318592
1937 1009 7 58.0753 13.6922 1.13288 -0.0046628 -0.00573853 -0.00187136
1938 1009 6 58.1549 12.534 1.15108 -0.00110034 -0.0054108 0.00341814
1939 1010 6 33.1389 48.4117 12.4852 -0.00120381 0.00399111 0.00491973
1940 1010 7 33.3275 47.6648 11.6178 -0.00702749 0.00454699 0.00317529
1941 1010 6 33.8802 46.7119 11.2543 -0.00831288 0.00563471 -0.00163186
1942 1011 6 56.1119 27.9833 3.18556 -0.0036712 0.00178816 -0.00290736
1943 1011 7 55.6073 28.3402 4.16705 -0.00423708 -0.0051812 -0.000664011
1944 1011 6 54.7809 28.6541 4.91893 -0.00378138 -0.000877779 -0.00196017
1945 1012 6 86.818 41.6286 29.4527 -0.00838728 -0.00372978 -9.55005e-05
1946 1012 7 87.0767 40.7589 28.7301 -0.00454166 -0.00169403 -0.00116874
1947 1012 6 86.6946 40.1091 27.8483 -0.00130466 -0.00167858 -0.00258272
1948 1013 6 21.3931 9.27705 13.453 -0.00350664 0.0039531 0.00156187
1949 1013 7 21.1272 9.08495 14.5665 0.00599926 0.00811927 0.00455019
1950 1013 6 21.6332 8.49044 15.4259 0.00490742 -0.00209578 -0.00187378
1951 1014 6 75.1518 48.2531 29.6424 0.00100192 -0.00566023 -0.000454609
1952 1014 7 74.5042 48.9216 28.9507 0.00206912 -0.00157401 0.00249521
1953 1014 6 73.8792 49.1331 27.9965 0.00448251 0.00441789 0.00224267
1954 1015 6 42.8115 35.0996 0.801139 0.00392232 0.00629301 -0.00435165
1955 1015 7 42.102 35.1845 1.71975 0.00541561 0.00515972 -0.00309348
1956 1015 6 42.5377 34.5324 2.57681 0.00659247 0.00377763 -0.0047433
1957 1016 6 64.8556 31.4741 16.1515 0.00244113 0.00127651 0.000155922
1958 1016 7 64.4752 30.4158 16.4394 0.00234203 0.000967241 -0.00111209
1959 1016 6 64.3765 29.86 17.4533 -0.0016651 0.00130978 -0.00131408
1960 1017 6 70.6794 38.189 18.6356 0.00129032 -0.00379691 -0.00836163
1961 1017 7 70.3143 39.2696 18.4248 0.00560265 -0.000525583 0.000940757
1962 1017 6 70.1 40.3768 18.1523 0.00697697 -2.90173e-05 0.00187744
1963 1018 6 61.7658 51.8266 17.804 -0.00172075 0.000568599 -0.00398241
1964 1018 7 60.8084 51.2551 18.1234 -0.000430865 -3.42409e-05 -0.00119439
1965 1018 6 60.0552 50.3943 18.326 -0.000634946 -0.000117324 -0.00230613
ITEM: TIMESTEP
135000
ITEM: NUMBER OF ATOMS
57
ITEM: BOX BOUNDS xy xz yz pp pp pp
0.0000000000000000e+00 1.0131084100000001e+02 2.7630201000000000e+01
0.0000000000000000e+00 5.8491914999999999e+01 1.8420141000000001e+01
0.0000000000000000e+00 3.0080027000000001e+01 1.0634897000000000e+01
ITEM: ATOMS id mol type x y z vx vy vz
1909 1000 6 42.7296 42.0761 27.2191 0.00427854 -1.38592e-05 0.00168829
1910 1000 7 43.0188 40.9554 27.1315 -0.0040818 -0.00166472 -0.00479612
1911 1000 6 42.5734 39.99 27.5973 -0.00163412 0.000485247 0.0019996
1912 1001 6 71.7067 39.0569 8.52148 0.0024944 0.000982933 -0.00160479
1913 1001 7 72.2399 39.0173 9.55233 0.00347372 -0.000374189 -0.00216357
1914 1001 6 73.0571 38.4563 10.1549 0.00204686 -0.00304687 -0.00271668
1915 1002 6 40.1917 40.8718 17.2579 -0.00245429 -0.0030269 -0.00229224
1916 1002 7 40.3566 39.724 17.2296 0.00158864 -0.00237948 -0.00499663
1917 1002 6 40.7088 38.6307 17.3912 -0.00124137 -0.00264964 -0.000654187
1918 1003 6 24.2041 34.5551 2.03787 -0.00442799 0.00167651 0.00400624
1919 1003 7 23.8613 33.4869 2.33243 -0.00144622 -0.00100292 -0.00224059
1920 1003 6 23.2805 32.6643 1.75426 0.00159908 0.000434983 -0.0073458
1921 1004 6 39.813 2.37127 0.420224 0.00515263 0.00146454 -0.00122115
1922 1004 7 57.4615 13.655 29.925 0.00492254 0.00650758 0.00477617
1923 1004 6 57.61 14.1472 28.8839 -0.00187195 0.00118956 0.00129287
1924 1005 6 27.9695 22.4216 9.74275 0.0038 -0.00251668 -0.000512917
1925 1005 7 27.4724 21.3932 9.93623 0.00390062 -0.00277824 -0.00164467
1926 1005 6 27.3166 21.2604 8.79386 -0.000629073 0.000726315 -0.00143416
1927 1006 6 54.822 22.2362 8.93306 -0.00562818 -0.00294132 -0.00332689
1928 1006 7 55.0186 21.2999 8.27639 -0.00145696 -0.00350914 -0.00126836
1929 1006 6 55.2659 21.1519 7.15161 0.00193856 -0.00471213 -0.000363509
1930 1007 6 60.0283 42.4107 30.0827 0.00453268 0.00223734 0.00779378
1931 1007 7 60.4242 41.3721 29.7521 -0.00361232 0.00128673 0.0010273
1932 1007 6 41.7063 29.8345 0.339456 0.0015047 0.00131247 0.00334491
1933 1008 6 75.917 37.727 25.612 -0.000943839 -0.00613834 -0.00607812
1934 1008 7 76.568 37.4058 26.5164 0.00216263 -0.00352966 -0.00738748
1935 1008 6 77.3915 37.4761 27.3325 -0.000642547 0.00250049 -0.00507625
1936 1009 6 79.5995 22.1983 28.7994 0.00374289 -0.00281613 -0.00266262
1937 1009 7 78.7241 22.8105 28.347 0.00318016 -0.000727085 0.00125278
1938 1009 6 78.9801 22.7028 27.2196 -0.00108364 0.000207483 0.000195141
1939 1010 6 61.8677 3.94632 10.6822 -0.00124616 -0.00363141 -4.68433e-06
1940 1010 7 34.9662 51.0706 10.155 0.00254402 0.000665573 -0.00073731
1941 1010 6 36.0274 50.6031 10.1261 0.00377705 0.0033508 0.00109351
1942 1011 6 51.2035 27.7974 1.31514 -0.000826792 0.00311207 -0.00226854
1943 1011 7 51.9385 27.5934 0.441374 -0.000609158 0.009018 -0.00346415
1944 1011 6 71.3506 38.1495 29.9241 0.00100845 0.001203 0.000252908
1945 1012 6 48.6214 32.2526 19.0866 0.0064284 -0.000319327 -8.22372e-05
1946 1012 7 47.65 32.8148 18.7936 0.00682006 -0.00255315 -0.0056669
1947 1012 6 46.5163 32.9315 19.0103 0.00896624 0.00757211 0.000110369
1948 1013 6 55.7197 46.6257 12.3298 0.00180085 0.00394286 -7.88771e-05
1949 1013 7 54.682 47.0425 12.6415 -0.000750404 -0.00012718 -0.00312959
1950 1013 6 53.9861 46.8735 13.5553 -0.000193337 0.00149663 -0.00240509
1951 1014 6 72.5341 48.1061 27.271 0.0049306 -0.00131013 0.00102942
1952 1014 7 72.1896 47.3216 26.4894 0.00243534 -0.000780057 0.00159738
1953 1014 6 71.5393 46.4327 26.1249 -0.000692575 0.00130551 0.0020911
1954 1015 6 64.6035 33.0845 27.6166 -0.00267772 0.00531088 -0.00414216
1955 1015 7 64.303 32.5667 28.6146 0.00171917 -0.00322756 -0.0072476
1956 1015 6 65.1783 32.6938 29.3677 0.00206561 -0.00334567 -0.00763031
1957 1016 6 64.5948 31.6842 16.6401 0.00167252 -0.00278038 -0.0015432
1958 1016 7 64.3366 31.0353 17.5674 0.000377362 -0.000785968 -0.00050806
1959 1016 6 64.4637 29.9059 17.8019 0.00411559 0.000528428 0.00379709
1960 1017 6 71.0814 40.9429 17.8344 -0.00332294 0.00548282 0.00366692
1961 1017 7 70.001 40.5241 17.886 -0.00272072 0.0036431 0.00134371
1962 1017 6 68.9909 39.9596 17.9706 -0.00174183 0.000679598 -0.00674456
1963 1018 6 34.4628 5.89996 10.2268 -0.00488709 0.00152888 -0.001327
1964 1018 7 34.0677 5.50721 11.2442 0.00102671 0.00197937 0.00114303
1965 1018 6 33.3496 5.22632 12.1129 0.00461214 -0.00787591 0.000920525
ITEM: TIMESTEP
140000
ITEM: NUMBER OF ATOMS
57
ITEM: BOX BOUNDS xy xz yz pp pp pp
0.0000000000000000e+00 1.0131084100000001e+02 2.7630201000000000e+01
0.0000000000000000e+00 5.8491914999999999e+01 1.8420141000000001e+01
0.0000000000000000e+00 3.0080027000000001e+01 1.0634897000000000e+01
ITEM: ATOMS id mol type x y z vx vy vz
1909 1000 6 23.5594 27.4677 2.28924 0.00141096 -0.000934032 -2.4071e-05
1910 1000 7 24.3519 28.2445 1.94877 0.00118729 -8.93497e-05 0.00138244
1911 1000 6 25.3212 28.6472 2.44432 0.00189195 -0.00184363 0.00142982
1912 1001 6 74.183 32.7738 4.57926 -0.00118541 0.00571938 0.00307329
1913 1001 7 73.8039 32.8684 3.4857 -0.000361913 0.000810629 0.00236354
1914 1001 6 73.1486 33.5174 2.78212 -0.000996867 -0.00316212 -0.000709957
1915 1002 6 39.9531 36.7919 15.6889 0.00316102 0.000149506 0.0023369
1916 1002 7 39.8146 36.6858 14.5422 0.000827562 -0.00178003 0.00279735
1917 1002 6 39.9423 36.5227 13.4009 -0.000891602 -0.000909996 0.00248078
1918 1003 6 41.9765 46.9044 28.1343 -0.000902451 -0.00394973 0.00090196
1919 1003 7 42.8817 46.1793 28.1224 0.00145923 -0.000962044 -0.00147883
1920 1003 6 43.3303 45.4746 28.9289 0.00438927 -0.00136221 -0.00345829
1921 1004 6 86.1037 53.1738 26.5078 -0.00116075 -0.00355056 -0.000767577
1922 1004 7 86.6224 54.1864 26.7378 -0.00364797 -0.0037277 0.00562148
1923 1004 6 86.1112 55.1533 27.1278 -0.00769891 -0.00433754 0.00182379
1924 1005 6 27.2517 20.5297 6.84359 0.00461343 0.00335697 0.00175534
1925 1005 7 27.6478 19.54 7.29695 0.000382287 0.00154251 0.0014901
1926 1005 6 27.2028 18.9571 6.39744 -0.00389351 0.00344709 0.00237106
1927 1006 6 59.5151 23.4254 6.89195 0.00115555 0.00340286 0.00112516
1928 1006 7 58.4778 23.0132 7.20936 0.00290864 -0.00123744 0.00082765
1929 1006 6 57.8538 23.0892 8.18557 0.000795117 -0.00117698 -0.000528104
1930 1007 6 37.2677 37.3423 6.44705 -0.00696805 -0.00257767 0.00103671
1931 1007 7 37.3077 36.6952 5.48558 -0.000394691 -0.000863196 0.000156534
1932 1007 6 36.9515 35.5946 5.58842 -0.00147969 -0.000931685 -0.00433458
1933 1008 6 77.4724 40.5794 28.1499 -0.000451753 -0.00335006 -0.00523847
1934 1008 7 77.5533 41.0193 27.0799 -0.00377114 1.9006e-05 -0.00410434
1935 1008 6 77.2002 41.4469 26.0593 -0.00696188 0.00191003 -0.00220819
1936 1009 6 29.4909 24.0036 27.9112 8.56634e-06 0.00271842 0.00182582
1937 1009 7 29.7166 24.092 26.7767 -0.000143801 0.000375284 0.00161288
1938 1009 6 30.1113 23.0184 26.5776 0.00401241 0.00132795 0.00471569
1939 1010 6 64.4647 11.6326 12.2601 -0.000920982 0.00733793 -7.19767e-05
1940 1010 7 64.4734 10.5816 11.7691 0.000204448 0.00607616 0.00264909
1941 1010 6 63.8702 9.75699 11.2197 0.0026282 0.0066944 -0.000939941
1942 1011 6 50.0775 35.996 2.67997 0.00317212 0.00582146 -0.0032949
1943 1011 7 49.8309 35.7848 1.56648 0.00613704 0.00375841 -0.00356028
1944 1011 6 49.6964 35.2096 0.567497 0.00203104 0.000384857 -0.00106522
1945 1012 6 70.8143 33.6935 15.0429 0.00225826 -0.00635988 0.000698022
1946 1012 7 69.961 34.0218 14.3292 0.00267554 0.0107538 0.00807061
1947 1012 6 68.8236 34.2324 14.2399 -0.000383573 -0.00602435 0.00747212
1948 1013 6 60.962 51.1814 15.2552 -0.000246153 0.00140342 0.00244516
1949 1013 7 60.884 51.1782 14.0969 -0.00183113 -0.000713954 0.0025578
1950 1013 6 61.6367 50.9688 13.2381 -0.00146439 0.0037527 0.00178999
1951 1014 6 74.3387 48.5691 27.7168 0.00129314 -0.00113491 -0.00108182
1952 1014 7 75.393 48.3953 28.1674 0.00045615 -0.00210899 0.000500503
1953 1014 6 76.3574 47.7765 28.3493 0.00346167 0.000782418 -0.00560017
1954 1015 6 67.0871 31.6646 27.135 0.00138071 -0.00413184 -0.00220236
1955 1015 7 68.069 31.0517 27.2565 0.00264989 -0.00135245 0.00156254
1956 1015 6 67.8775 30.209 28.0329 0.00310735 0.000311673 0.00348173
1957 1016 6 62.3539 31.3337 18.0985 0.000645056 0.00620551 -0.00166811
1958 1016 7 63.3089 30.68 18.1897 -0.00107461 0.00364512 -0.00201112
1959 1016 6 63.9626 30.1225 17.4096 -0.00427402 -0.000151547 -0.00197871
1960 1017 6 70.706 40.2956 15.1177 -0.00839094 0.00570609 0.000944222
1961 1017 7 71.1773 40.7972 14.184 0.000854027 0.000177038 0.00264055
1962 1017 6 71.586 41.1719 13.1649 -0.0035993 0.0030444 0.00190902
1963 1018 6 32.8689 10.1723 4.51551 -0.00492721 -0.00230766 -0.00143296
1964 1018 7 33.0311 9.05186 4.76801 0.00170822 -0.00129002 -0.00117972
1965 1018 6 33.4867 7.9837 4.79634 0.00174822 -0.00150278 -0.00984499
ITEM: TIMESTEP
145000
ITEM: NUMBER OF ATOMS
57
ITEM: BOX BOUNDS xy xz yz pp pp pp
0.0000000000000000e+00 1.0131084100000001e+02 2.7630201000000000e+01
0.0000000000000000e+00 5.8491914999999999e+01 1.8420141000000001e+01
0.0000000000000000e+00 3.0080027000000001e+01 1.0634897000000000e+01
ITEM: ATOMS id mol type x y z vx vy vz
1909 1000 6 47.8679 43.3074 25.4792 2.62293e-07 0.00247967 -0.00160396
1910 1000 7 47.2256 42.4013 25.1417 -0.00387546 0.00386744 0.00204501
1911 1000 6 46.5053 42.2386 24.2462 -0.00248216 0.00242589 0.00118602
1912 1001 6 22.5719 31.8338 4.96569 2.63281e-05 0.000817565 -0.000276018
1913 1001 7 21.4455 32.1094 4.90536 0.000264252 0.00252651 0.00308742
1914 1001 6 75.9666 32.9216 4.53198 0.000268631 0.00286008 0.00380436
1915 1002 6 40.1793 36.6661 17.5578 -0.00100412 0.00144387 0.00415165
1916 1002 7 40.2585 37.8118 17.3952 -0.00090687 0.000814834 -0.00023521
1917 1002 6 40.5867 38.9228 17.3374 -0.0026364 0.00134341 0.000105929
1918 1003 6 39.2891 43.3461 24.9398 -0.00456005 -0.00407228 0.00326342
1919 1003 7 38.4865 43.7283 24.1947 -0.0047114 -0.00549146 0.00269844
1920 1003 6 38.3256 43.5501 23.0587 0.00236788 0.00255233 0.000433336
1921 1004 6 87.3955 49.4501 24.3672 -0.00133169 0.000573108 0.00110239
1922 1004 7 86.3079 49.8546 24.3394 -0.0019317 -0.000881249 0.00341174
1923 1004 6 85.9847 50.9657 24.2429 -0.00367169 -0.00190178 -0.0025165
1924 1005 6 27.9066 21.1496 7.99307 0.0026257 -0.00316282 -0.00299602
1925 1005 7 27.6844 20.0126 7.99005 -0.000551313 -0.00254616 -0.00143232
1926 1005 6 27.7541 20.0083 6.83159 -0.000655953 -0.00431621 -0.00143199
1927 1006 6 59.3753 23.4659 6.84719 -0.000811016 0.00338764 -0.000805716
1928 1006 7 58.4081 23.0127 7.30067 0.000783902 0.000148131 -0.000641944
1929 1006 6 57.8583 23.1563 8.31323 0.000753935 -0.00208285 -0.0003417
1930 1007 6 41.1765 29.7707 7.24393 0.00287027 -0.00573796 0.00498485
1931 1007 7 40.0903 30.0671 7.5216 0.00415914 0.00359609 6.39684e-05
1932 1007 6 39.2934 29.9518 6.68473 0.00530134 0.0017676 -0.000771708
1933 1008 6 57.9423 32.5186 4.03266 0.00371098 -0.000263609 -0.00954768
1934 1008 7 58.5925 33.4788 4.02197 0.00115283 0.0015324 -0.00381664
1935 1008 6 59.4748 34.1817 3.74526 -0.000168773 0.00517072 0.00121063
1936 1009 6 31.9605 22.2774 29.8055 0.00118801 0.000672003 -0.00142989
1937 1009 7 33.047 22.1318 30.1852 -0.000251176 0.0010108 0.00281819
1938 1009 6 15.0605 12.5419 -0.155903 0.00303391 -0.00209057 -0.00413875
1939 1010 6 65.4748 11.4588 11.9603 0.00157059 -0.00196013 0.000360414
1940 1010 7 66.2777 10.9212 11.3183 -0.000525876 -0.00142187 -0.00271206
1941 1010 6 11.3301 9.9563 10.7556 0.000264983 -0.00302958 0.000484932
1942 1011 6 71.5346 47.5428 28.0271 0.00450607 -0.00430162 0.0022184
1943 1011 7 72.4961 47.903 27.4877 0.0019093 0.0011462 0.00122732
1944 1011 6 73.1979 48.2903 26.6485 0.000249839 -0.00129361 -0.00128604
1945 1012 6 84.1448 42.9171 20.0349 -0.00610126 8.08284e-05 0.0015789
1946 1012 7 84.5206 43.9977 19.8441 -0.00326205 -0.000160667 0.00580543
1947 1012 6 84.5444 44.8771 19.0877 0.0114451 -0.00260339 0.00342753
1948 1013 6 56.7448 46.7569 16.7805 -0.00219433 0.000450867 0.00467159
1949 1013 7 57.3694 47.566 16.2302 -0.00361045 -7.25092e-05 0.00229495
1950 1013 6 57.5119 48.7096 16.3712 -0.00273287 -5.37274e-05 0.00125567
1951 1014 6 75.5685 42.3854 24.5854 9.74115e-05 -0.00431471 -0.000999898
1952 1014 7 76.344 41.7084 25.1196 0.0023274 -0.000761488 0.000266141
1953 1014 6 77.4142 41.4276 25.4683 0.00346463 0.00267298 -0.000458607
1954 1015 6 70.6961 30.4571 28.2114 0.000499755 -0.00194926 0.000672125
1955 1015 7 69.9139 31.0906 27.6273 0.00197166 -0.00143803 -0.000744632
1956 1015 6 69.391 30.3992 26.8539 -0.000586238 -0.00227182 0.00172994
1957 1016 6 66.8985 31.1104 17.8351 -0.0018604 1.29461e-05 0.00592306
1958 1016 7 65.9095 30.5856 18.142 -0.00259693 0.000419539 0.00424454
1959 1016 6 64.8576 30.5347 17.6547 -0.00171482 0.000626318 0.00231844
1960 1017 6 71.0327 41.2416 12.7881 0.0023695 -0.00232202 -0.00258216
1961 1017 7 70.6347 41.2494 13.8776 0.000471546 0.0036248 -0.00331805
1962 1017 6 70.0943 41.2028 14.9032 0.00319424 -0.0046297 -0.00225859
1963 1018 6 63.4679 50.5142 27.4332 -0.00538635 0.00661243 -0.00577486
1964 1018 7 64.4909 50.8342 26.99 -0.00361531 0.00383099 -0.00369595
1965 1018 6 65.6234 51.0741 26.8941 -0.00297515 0.00185758 -0.00107392
ITEM: TIMESTEP
150000
ITEM: NUMBER OF ATOMS
57
ITEM: BOX BOUNDS xy xz yz pp pp pp
0.0000000000000000e+00 1.0131084100000001e+02 2.7630201000000000e+01
0.0000000000000000e+00 5.8491914999999999e+01 1.8420141000000001e+01
0.0000000000000000e+00 3.0080027000000001e+01 1.0634897000000000e+01
ITEM: ATOMS id mol type x y z vx vy vz
1909 1000 6 22.3368 27.6307 1.14231 0.00293435 0.0006653 0.00563026
1910 1000 7 40.9608 37.7544 30.2003 0.001808 -0.00107774 0.00627744
1911 1000 6 41.1334 38.1744 29.1321 -0.000452445 -0.00294537 0.00517794
1912 1001 6 26.6676 29.6973 4.61749 0.000385396 0.000497786 -0.000247939
1913 1001 7 25.7629 30.4073 4.77927 0.00172018 0.00203055 0.000489398
1914 1001 6 24.7113 30.4769 5.26393 8.44592e-05 0.00208016 -0.00306698
1915 1002 6 41.2304 41.1136 14.5705 0.00120314 -0.00159631 -0.000640236
1916 1002 7 41.4997 41.402 13.4798 0.00287611 0.00462624 0.00141804
1917 1002 6 41.5123 41.7808 12.3836 0.0022679 0.00424269 0.00127848
1918 1003 6 85.5175 43.8576 25.989 0.00233948 0.00248131 0.00628169
1919 1003 7 86.1524 42.9047 26.1743 -0.00183612 -0.000830398 0.00355766
1920 1003 6 86.1103 42.0839 26.9946 -0.00608322 -0.00353702 0.000631515
1921 1004 6 83.8269 42.7295 23.6908 0.000232495 0.00125616 -0.00304071
1922 1004 7 82.9862 43.3978 24.1314 0.00319165 0.00250587 0.00070929
1923 1004 6 82.0745 43.8316 23.558 0.00134446 0.00396296 0.00474818
1924 1005 6 25.9252 14.1812 6.3774 0.00192653 -0.00241751 0.000193307
1925 1005 7 25.8105 14.8058 7.3463 -0.00576032 -0.000756418 -0.00178704
1926 1005 6 25.8237 15.7785 6.71348 0.00100571 -0.00176335 -0.00319381
1927 1006 6 57.2083 21.5462 8.52611 -0.000908988 -0.000494173 -0.000889198
1928 1006 7 56.212 22.0056 8.14792 -0.00171267 -0.000940119 0.000686449
1929 1006 6 55.2332 21.548 7.72266 -0.00201389 -0.001354 0.001825
1930 1007 6 40.3094 26.7684 2.24463 0.000752534 -0.0061363 -0.00458939
1931 1007 7 39.4928 25.9491 2.16327 -0.0014044 -0.0041769 -0.00267512
1932 1007 6 38.5951 26.182 1.46422 -0.00411091 -0.000654548 0.00197401
1933 1008 6 74.9843 44.261 23.9825 -0.00576317 -0.00217158 -0.00110655
1934 1008 7 75.8362 43.9556 24.7076 -0.0136471 -0.00806988 0.00567243
1935 1008 6 76.5362 44.0075 25.633 -0.000743138 0.00454333 -0.0047954
1936 1009 6 33.9127 22.707 27.4349 0.00394381 0.00250458 -0.00438416
1937 1009 7 33.0588 23.4421 27.7109 0.00353833 0.000192456 0.000518214
1938 1009 6 32.3565 23.2666 26.8031 -0.0015927 -0.00232678 0.00497459
1939 1010 6 64.4201 12.8389 12.4318 0.00504097 0.000241324 0.00148242
1940 1010 7 64.7776 12.7319 13.5303 0.00547431 0.000924899 0.00140796
1941 1010 6 65.2839 12.0614 14.33 0.000204955 -0.00089669 0.00321709
1942 1011 6 76.3987 48.0307 29.3362 0.000613536 0.000204849 -0.00282013
1943 1011 7 75.9201 47.5002 28.4225 -0.00447262 0.00364745 -0.00215515
1944 1011 6 75.5171 47.3255 27.3483 0.00128429 0.00352267 -0.00429468
1945 1012 6 58.292 13.7105 25.6224 -0.00381902 -0.00139986 0.00414937
1946 1012 7 58.9321 13.1764 24.8159 0.00582084 0.00247505 0.00923334
1947 1012 6 59.3799 12.1619 24.475 0.00226236 0.00239706 0.00479048
1948 1013 6 55.7819 48.0278 18.5838 0.00198624 0.00146321 0.00194697
1949 1013 7 55.9104 47.4789 17.569 0.00069842 0.0045008 0.000140681
1950 1013 6 56.3439 46.4474 17.2589 -0.000515448 0.00505483 -0.00339827
1951 1014 6 75.442 40.1944 25.1645 -0.00658579 0.000442058 -0.00190574
1952 1014 7 75.2856 39.0466 25.2203 0.000394022 -0.00036941 0.000969029
1953 1014 6 75.535 37.9482 24.9425 0.00580195 0.000550231 0.00218745
1954 1015 6 69.7815 30.6198 28.0101 0.00137487 0.00392138 0.000444879
1955 1015 7 70.1875 30.1306 28.9849 0.00189499 -0.00134831 -0.00241657
1956 1015 6 71.2495 30.5548 29.1893 -0.000702479 0.00256516 0.00295624
1957 1016 6 65.2785 36.3295 21.7717 0.00222734 -0.000831079 0.00337552
1958 1016 7 66.4368 36.2718 21.7199 0.00212753 -0.0045376 0.00527598
1959 1016 6 67.1909 36.298 20.8383 0.00426584 0.00447679 0.00737257
1960 1017 6 74.3114 43.4266 11.928 -0.00159699 -0.00181825 -0.00157824
1961 1017 7 73.5482 42.6044 12.2228 -0.00710043 0.00157106 -0.00637067
1962 1017 6 72.8384 41.7009 12.3841 0.00145051 -0.00402599 -8.9801e-05
1963 1018 6 45.874 41.0015 -0.166755 -0.00219273 0.00910184 -0.00295432
1964 1018 7 45.9567 40.5401 0.894232 -0.00237377 0.00531753 -0.00458577
1965 1018 6 45.7631 40.3212 2.01846 -0.00167859 0.00223176 -0.00506711
ITEM: TIMESTEP
155000
ITEM: NUMBER OF ATOMS
57
ITEM: BOX BOUNDS xy xz yz pp pp pp
0.0000000000000000e+00 1.0131084100000001e+02 2.7630201000000000e+01
0.0000000000000000e+00 5.8491914999999999e+01 1.8420141000000001e+01
0.0000000000000000e+00 3.0080027000000001e+01 1.0634897000000000e+01
ITEM: ATOMS id mol type x y z vx vy vz
1909 1000 6 23.4866 23.8976 7.18641 0.00300306 -0.00243902 -0.00090221
1910 1000 7 23.3269 23.6163 6.07163 -0.00472863 0.00387366 -0.00138687
1911 1000 6 23.7933 24.0142 5.08601 -0.00259488 0.00102417 -0.00152731
1912 1001 6 74.5501 34.282 6.25046 0.00345405 -0.00180207 -0.00381918
1913 1001 7 74.2848 33.4333 6.99733 0.00694072 -0.00137846 -0.00209956
1914 1001 6 74.2525 32.2803 7.12048 0.000499151 -0.00138759 -0.0038762
1915 1002 6 47.7369 42.4848 12.0518 0.0037685 0.00176539 0.00277421
1916 1002 7 48.601 42.8052 11.3474 -0.00139666 0.00854301 -0.000478639
1917 1002 6 49.316 42.9977 10.4546 1.48928e-05 0.0029749 -0.000548446
1918 1003 6 67.8618 35.4195 0.969382 0.0036822 -0.000977771 0.00224465
1919 1003 7 67.4451 34.8293 0.0619528 -0.00120562 0.00171032 0.00274105
1920 1003 6 86.2534 44.5308 29.5706 -0.00270134 0.00523457 -0.0040327
1921 1004 6 82.8444 44.023 19.8543 0.000685541 0.000506415 0.00251847
1922 1004 7 83.0968 44.5307 18.8415 0.00516279 -0.00249955 0.0021275
1923 1004 6 83.1019 45.6707 18.6207 -0.00405386 -0.00364867 -0.00402061
1924 1005 6 25.4521 13.697 4.32745 -0.000290485 -0.00274778 -2.18008e-05
1925 1005 7 25.5547 14.7905 4.69597 0.00201287 -0.00271039 -0.000774328
1926 1005 6 24.8557 14.5483 5.5902 6.25565e-05 -0.000151025 -0.00160562
1927 1006 6 58.515 23.2245 8.79384 -0.00301206 -0.000865324 0.000515567
1928 1006 7 57.7543 22.7683 8.04556 -0.00260162 -0.00174862 0.000636779
1929 1006 6 57.0374 21.8562 8.09314 -0.00146078 -0.00264142 0.000712393
1930 1007 6 35.8018 22.6397 9.80824 0.00282551 -0.000131567 -0.00109754
1931 1007 7 36.0674 21.6697 9.23088 0.00740644 -0.000829428 0.00218237
1932 1007 6 36.8956 21.7605 8.4218 0.00362013 0.00140158 -0.00144288
1933 1008 6 51.2079 26.9936 6.01309 0.00205915 -0.00181395 0.00553388
1934 1008 7 50.3583 27.1857 6.77876 -0.00563782 0.00107236 -0.00373055
1935 1008 6 49.6258 27.7879 7.44945 0.00333817 0.00317698 0.00418255
1936 1009 6 15.5067 12.0508 1.6206 0.00209322 -0.0051653 0.00229615
1937 1009 7 15.9013 12.1145 0.531556 0.00295831 0.00189068 0.00302236
1938 1009 6 33.3431 23.0683 30.0737 0.00230282 0.000956832 0.00366085
1939 1010 6 63.4865 11.3913 11.9064 -0.000703314 0.00111602 0.00166703
1940 1010 7 62.3543 11.4867 11.6723 3.32867e-05 -0.00146651 -0.00294717
1941 1010 6 61.3201 10.9631 11.6284 -0.000929203 -0.00028007 0.00557681
1942 1011 6 51.3334 37.1186 3.84149 0.000165365 0.00371757 -0.00904304
1943 1011 7 50.9264 38.0554 4.39096 -0.00241766 -0.00166097 -0.00178593
1944 1011 6 50.9095 39.0453 4.99659 -0.00450498 8.14524e-05 -0.00469197
1945 1012 6 57.7993 44.1407 0.668175 -0.00182557 -0.00757938 -0.00261262
1946 1012 7 57.1084 43.5514 1.38992 -0.00127379 -0.00436668 0.000538697
1947 1012 6 57.0751 42.8307 2.29836 -0.000608727 0.000853101 0.00470464
1948 1013 6 53.8478 50.9093 20.5842 -0.0015733 -0.000672407 0.00212509
1949 1013 7 53.4159 51.9865 20.6076 0.00600475 0.00249939 -0.00399746
1950 1013 6 53.526 52.8843 21.3354 -0.00292707 -0.000473358 0.00102177
1951 1014 6 76.8084 43.9067 23.7155 -0.00081415 -0.00425471 -0.000166855
1952 1014 7 75.7612 43.7665 23.2374 0.000336471 -0.00272929 -0.00313479
1953 1014 6 74.875 43.1308 22.8419 -0.00534099 -0.00121566 0.00715209
1954 1015 6 70.5652 30.3234 30.041 0.00465956 0.00115868 0.00415458
1955 1015 7 52.5292 18.8743 0.698535 -0.00118247 -0.00285342 0.00276758
1956 1015 6 52.0929 19.1024 1.7508 -0.00339006 -0.00423841 0.00215265
1957 1016 6 64.1523 41.219 20.4432 -0.00419268 -0.00116958 0.00662189
1958 1016 7 64.5575 40.3509 21.0989 0.000311128 -0.00246453 0.00212381
1959 1016 6 64.4446 39.1974 21.0409 0.00655878 -0.00276596 -0.00403745
1960 1017 6 69.5714 41.0045 16.6109 0.00155675 0.00103733 -0.00244516
1961 1017 7 69.7067 41.0483 15.4597 -0.00297853 -0.00554228 -0.00322803
1962 1017 6 69.6973 41.1716 14.3061 0.000428035 0.00237132 -0.00241013
1963 1018 6 51.1791 43.8581 3.25439 -0.0012689 -0.00135353 -0.00114663
1964 1018 7 50.9047 44.2463 2.19637 -0.000265151 -0.00160182 -0.00149809
1965 1018 6 50.9987 44.6904 1.12716 0.00020227 0.00206378 6.56451e-05
ITEM: TIMESTEP
160000
ITEM: NUMBER OF ATOMS
57
ITEM: BOX BOUNDS xy xz yz pp pp pp
0.0000000000000000e+00 1.0131084100000001e+02 2.7630201000000000e+01
0.0000000000000000e+00 5.8491914999999999e+01 1.8420141000000001e+01
0.0000000000000000e+00 3.0080027000000001e+01 1.0634897000000000e+01
ITEM: ATOMS id mol type x y z vx vy vz
1909 1000 6 21.4445 19.3115 2.52452 0.00133184 -0.00276241 -0.00250345
1910 1000 7 21.7737 18.201 2.6006 -0.00400248 -0.00402438 0.0021559
1911 1000 6 21.3423 17.221 2.15263 -0.00410107 -0.00290801 -0.000191607
1912 1001 6 71.9455 30.2943 6.77536 -0.00249412 -0.00474814 0.000477861
1913 1001 7 70.9525 30.8469 6.53632 -0.00193474 -0.00366069 0.000668426
1914 1001 6 70.3641 31.3752 5.68763 -0.00137414 -0.0027194 0.000865641
1915 1002 6 45.2105 30.5313 17.7539 -0.00556205 -0.000936011 -0.0029328
1916 1002 7 44.6791 31.5572 17.6504 -0.0036989 -0.000269127 -0.00588909
1917 1002 6 43.933 32.4291 17.4816 -0.00256669 0.000531549 -0.00675806
1918 1003 6 33.559 37.1506 25.7309 -0.00163732 0.000606165 0.00124884
1919 1003 7 32.9421 37.8196 26.4501 -0.00265463 -0.00151406 0.0023485
1920 1003 6 33.1611 38.2373 27.5112 -0.00683984 -0.00996615 0.00653978
1921 1004 6 30.8985 36.0864 18.7292 0.000900431 -0.00323173 0.00506681
1922 1004 7 31.3999 36.9644 18.1591 -0.00467345 -0.00290763 0.000664229
1923 1004 6 31.3718 38.0872 18.454 -0.000190686 -0.00330983 0.00262188
1924 1005 6 30.0446 21.3902 4.55053 0.0025609 0.00223458 -0.000783539
1925 1005 7 30.0931 20.5968 3.70782 0.000578705 0.002502 -0.00114938
1926 1005 6 29.341 19.9361 4.29494 0.00291639 0.00174931 0.000998439
1927 1006 6 58.1633 23.2109 8.38969 -0.00195946 0.000793858 -0.000339296
1928 1006 7 57.5716 22.2931 7.99692 -0.00432926 0.00215301 5.48322e-05
1929 1006 6 56.9864 21.4376 8.52025 -0.00062247 -2.09339e-05 0.000646108
1930 1007 6 41.7561 17.5985 13.2008 0.000305365 0.000956696 0.00195102
1931 1007 7 41.3122 16.9936 14.0849 -0.00143211 0.00135471 0.00135097
1932 1007 6 41.8073 17.1568 15.1227 -0.00871286 0.00792034 0.00379148
1933 1008 6 46.5488 33.0248 16.7611 -0.00706025 -0.00567117 -0.00291085
1934 1008 7 47.146 33.0806 15.7686 -0.00585333 0.000663183 -0.00182875
1935 1008 6 47.7997 33.5424 14.927 0.00228697 0.00350503 0.00605417
1936 1009 6 16.8044 11.9576 2.42759 -0.0034763 0.00197599 -0.000123109
1937 1009 7 16.4986 11.7083 1.33668 0.00459603 0.00406726 -0.00286454
1938 1009 6 15.8933 12.6668 1.08561 -0.00196281 0.000117389 -0.0021329
1939 1010 6 64.3738 12.7918 12.5443 -0.00590682 0.000159861 0.00119023
1940 1010 7 64.1626 11.6606 12.3975 0.00452663 -0.00126326 -0.00285642
1941 1010 6 63.8402 10.815 11.6717 -0.00287822 0.000672258 -0.00182257
1942 1011 6 49.3269 32.0768 1.90012 -0.00555401 0.00261812 -0.00294712
1943 1011 7 49.1922 33.2279 1.94551 -0.00307713 0.00292595 -0.00340554
1944 1011 6 49.4428 34.3599 1.89407 0.00213784 0.00225448 0.00722361
1945 1012 6 67.1667 45.2504 5.12693 -0.00126694 -0.000870883 -0.00752444
1946 1012 7 68.0947 45.219 4.4318 -0.000474942 0.000958507 -0.00654956
1947 1012 6 68.873 45.8571 3.85468 0.00222613 0.00245339 -0.00125425
1948 1013 6 23.4329 9.16651 18.4941 0.00155994 0.00184015 0.00141829
1949 1013 7 22.6514 8.31412 18.5955 0.00806068 -0.00419076 0.000823851
1950 1013 6 22.1139 7.61797 17.8376 0.0016331 0.00283197 -0.00106815
1951 1014 6 71.8503 44.107 24.9244 7.21415e-05 -0.0018229 -0.000225621
1952 1014 7 72.3569 43.3349 24.2228 -0.000799656 0.00166409 -0.00469252
1953 1014 6 72.3537 42.5264 23.3908 -0.00280526 0.000322498 -0.00338115
1954 1015 6 53.0503 16.2588 4.14739 0.00106483 0.00303139 0.00108984
1955 1015 7 54.0784 16.1889 4.68838 0.00142268 0.00349724 0.000469938
1956 1015 6 54.1529 15.1454 5.19351 0.00396135 0.0019371 -0.00312774
1957 1016 6 66.1514 40.5304 19.1489 0.00145225 0.00489404 0.00214705
1958 1016 7 65.3461 41.0943 19.7664 0.000147306 0.00268995 0.00245797
1959 1016 6 64.5381 40.7414 20.5208 -0.0011005 5.53301e-05 -0.000110644
1960 1017 6 70.5924 37.7131 11.7462 -0.000351465 -0.00258173 -0.00487722
1961 1017 7 69.5033 38.0878 11.6085 0.000636425 0.00116425 -0.0024973
1962 1017 6 68.3691 38.3064 11.4998 0.000834071 0.00618582 0.00553208
1963 1018 6 67.0183 54.978 25.8349 -0.00150445 0.0031251 0.00201205
1964 1018 7 67.9672 54.5185 26.3184 -0.00270962 0.00203252 0.00333868
1965 1018 6 68.9921 54.42 26.8562 0.00256638 0.00130589 -0.00684901
ITEM: TIMESTEP
165000
ITEM: NUMBER OF ATOMS
57
ITEM: BOX BOUNDS xy xz yz pp pp pp
0.0000000000000000e+00 1.0131084100000001e+02 2.7630201000000000e+01
0.0000000000000000e+00 5.8491914999999999e+01 1.8420141000000001e+01
0.0000000000000000e+00 3.0080027000000001e+01 1.0634897000000000e+01
ITEM: ATOMS id mol type x y z vx vy vz
1909 1000 6 40.7383 30.4444 29.706 0.00181297 0.00151773 0.00566206
1910 1000 7 39.5783 30.4259 29.6698 0.00198345 -0.000933235 0.0014512
1911 1000 6 38.8148 30.6452 28.8235 0.00464091 -0.00452083 -0.00187593
1912 1001 6 20.931 29.519 4.5555 -0.0018549 -0.0027508 -0.000389507
1913 1001 7 19.7982 29.565 4.80708 -0.000976602 -0.00312308 0.00363314
1914 1001 6 18.8996 28.9261 5.16769 -0.000641744 -0.00460728 0.00183794
1915 1002 6 50.9798 40.5031 17.2005 -0.00217736 0.00626572 -0.000375812
1916 1002 7 49.9336 40.2776 17.6475 0.00139083 -0.00481206 0.00238644
1917 1002 6 48.871 39.8782 17.8857 -0.00125611 -0.00248769 -0.00552456
1918 1003 6 87.5583 38.5346 28.1832 0.000664924 0.00111966 0.00390028
1919 1003 7 88.361 38.0367 27.51 -0.00120331 0.00074454 0.00195017
1920 1003 6 33.0315 37.2359 26.6719 -0.00407182 0.0034835 -0.000430718
1921 1004 6 83.2475 36.7203 21.9796 0.0122399 -0.000555754 -0.00318671
1922 1004 7 82.8105 37.4329 21.1742 -0.0023062 -0.00135415 0.00399852
1923 1004 6 82.9009 38.5903 21.1514 0.000493648 -0.00166682 -0.000779771
1924 1005 6 26.3085 15.9723 6.358 0.000682034 0.00424142 -0.00544969
1925 1005 7 26.6678 14.9288 6.71023 -0.00223598 0.00524252 0.000492525
1926 1005 6 27.7303 15.1657 6.30805 -0.00238408 -0.0012694 -0.00373373
1927 1006 6 59.668 24.2014 7.37264 -0.0024413 0.00179631 -0.00051231
1928 1006 7 58.8739 23.4652 7.78983 -0.0012193 0.000868934 0.000177239
1929 1006 6 58.2716 23.4193 8.78142 -0.00577746 0.0042932 -0.00243308
1930 1007 6 42.3371 19.389 13.1033 -0.0046636 0.000458318 0.00123328
1931 1007 7 41.65 18.4567 13.0456 -0.00274488 -0.000498604 -0.00615762
1932 1007 6 42.0118 17.5122 13.6165 -0.00807656 0.000325868 -0.00141475
1933 1008 6 50.2316 33.9597 17.7173 0.00150473 0.00425673 -0.00138205
1934 1008 7 50.5595 33.0023 18.2836 0.00139667 0.00330476 -0.00292879
1935 1008 6 50.6519 32.2447 19.1591 -0.000387133 0.000905963 -0.00481621
1936 1009 6 33.3765 23.0506 27.7142 0.00494997 -0.000567442 -0.00117812
1937 1009 7 33.4626 23.9513 26.9883 0.000214093 0.00180647 0.00120548
1938 1009 6 32.3736 24.3495 27.05 -0.00270912 -0.00597313 -0.000185606
1939 1010 6 65.1156 12.259 14.9291 0.000756282 0.00356782 -0.000599326
1940 1010 7 63.9809 12.2289 15.1687 0.000962713 0.00362708 0.000385601
1941 1010 6 63.1383 11.8097 15.8469 0.00121936 0.00147115 -0.000628082
1942 1011 6 79.1478 46.3507 29.2525 -0.00470933 -0.00561469 -0.000811322
1943 1011 7 60.0272 35.8982 0.0787904 -0.00462783 0.000387296 -0.00195642
1944 1011 6 59.582 36.3816 1.03537 -0.00201825 0.00417048 -0.00265323
1945 1012 6 69.3081 44.7417 0.415015 0.00239061 -0.000199608 0.000351984
1946 1012 7 88.6475 55.0003 29.8961 -0.000705176 -0.000112282 -0.00445427
1947 1012 6 89.0267 54.6455 28.8586 -0.00365315 0.0098977 -0.00895511
1948 1013 6 24.4616 7.37627 18.708 0.00183844 -0.0011691 0.00302702
1949 1013 7 23.5284 7.32008 18.0199 0.00401577 0.00075586 -8.3344e-05
1950 1013 6 22.4548 6.89732 18.1493 0.00491434 -0.00337593 -0.00612914
1951 1014 6 71.712 42.4213 24.3826 0.00129025 -0.00258855 0.000575831
1952 1014 7 70.8169 42.6733 25.0756 0.0018228 -0.000923795 0.000658336
1953 1014 6 69.9621 43.3544 25.4645 0.0016202 -0.000317291 -0.000849276
1954 1015 6 55.1212 17.4321 8.57167 0.0015874 -0.000449186 0.00446055
1955 1015 7 54.6169 18.3615 8.0857 0.000617468 -0.00151241 0.00343344
1956 1015 6 54.652 19.2353 8.85051 -0.00163262 -0.00106522 0.00302567
1957 1016 6 62.89 46.8884 26.4239 0.00503054 -0.00217233 -0.00101012
1958 1016 7 63.0929 47.3252 27.4802 -0.00136014 -0.00292569 0.000529249
1959 1016 6 64.0461 47.3902 28.1389 -0.00399277 0.0019955 0.00385329
1960 1017 6 96.5165 55.4507 29.6923 -0.0021432 -0.00316405 -0.0033735
1961 1017 7 78.3054 45.3458 0.62265 0.000618699 -0.000988609 -0.00508576
1962 1017 6 78.5219 45.724 1.69786 0.00254958 0.00135842 -0.00630022
1963 1018 6 65.3476 56.1904 27.5323 0.00301535 -0.000814084 3.89298e-05
1964 1018 7 65.7579 55.468 26.7229 0.00015684 -0.00129785 -0.000978095
1965 1018 6 65.803 54.6947 25.8572 -0.00290107 -0.00136669 -0.00107598
ITEM: TIMESTEP
170000
ITEM: NUMBER OF ATOMS
57
ITEM: BOX BOUNDS xy xz yz pp pp pp
0.0000000000000000e+00 1.0131084100000001e+02 2.7630201000000000e+01
0.0000000000000000e+00 5.8491914999999999e+01 1.8420141000000001e+01
0.0000000000000000e+00 3.0080027000000001e+01 1.0634897000000000e+01
ITEM: ATOMS id mol type x y z vx vy vz
1909 1000 6 21.3298 16.017 3.66867 -0.0024218 0.000408426 0.00126693
1910 1000 7 21.2538 16.7536 2.77487 -0.00147507 0.00298062 0.00330644
1911 1000 6 21.7614 17.7733 2.55137 0.00212566 0.00150297 0.00474418
1912 1001 6 33.9528 39.9132 25.0238 -0.00462225 -0.00051132 -0.00468736
1913 1001 7 88.898 40.2595 26.0864 0.00132659 0.00655344 -0.0052247
1914 1001 6 89.2503 40.3082 27.1906 0.000836486 -0.000683304 -0.00474915
1915 1002 6 51.5063 39.4092 15.9776 0.00371826 -0.00466536 -0.0052069
1916 1002 7 50.6892 39.7308 15.2196 -0.000493616 0.00533378 0.0035755
1917 1002 6 49.7102 39.9033 14.622 0.00083228 -0.00598246 -0.00186335
1918 1003 6 86.1235 39.4343 27.8479 0.00548388 0.00427687 0.0024755
1919 1003 7 85.7519 40.2958 27.1659 0.00236532 0.00282342 0.00233861
1920 1003 6 86.2929 41.2074 26.692 0.000534632 0.000954134 -0.00334683
1921 1004 6 31.7362 36.0758 20.8371 -0.00184716 -0.00173507 0.00298209
1922 1004 7 31.2222 35.6705 19.8784 0.000727158 -0.00266727 0.00199606
1923 1004 6 31.5846 35.8149 18.7848 0.0026667 -0.00217139 0.0027042
1924 1005 6 31.8239 15.3316 5.48329 0.00742328 -0.00395355 -0.00115504
1925 1005 7 31.0447 14.4751 5.51846 -0.00199298 0.00468032 0.000478685
1926 1005 6 31.5222 14.0894 6.50345 -0.00418678 -0.00062352 -0.000534706
1927 1006 6 51.6772 23.0997 8.32856 -0.00110034 0.000943602 0.0014842
1928 1006 7 52.7385 22.8873 7.91012 -0.000802883 -2.38636e-06 0.00271876
1929 1006 6 53.7936 22.8484 8.39336 -0.00161105 -0.0026394 0.00427094
1930 1007 6 32.3257 11.7628 8.65374 -0.000713843 0.00241682 -0.0042477
1931 1007 7 32.8559 12.7553 8.37319 0.000342188 0.00235528 -0.00246987
1932 1007 6 33.9134 12.6609 7.90272 0.00126581 0.00217088 -0.000356681
1933 1008 6 50.4147 32.2132 18.8677 0.00328867 -0.00289912 -0.00142161
1934 1008 7 49.4949 32.311 18.1682 0.0034444 0.00855652 -2.47e-05
1935 1008 6 48.3929 32.5016 17.8547 0.000903282 0.00142367 0.00457043
1936 1009 6 32.0091 22.1484 27.6192 0.000673735 0.00173457 -0.0045791
1937 1009 7 31.103 22.1935 26.8961 -0.00282327 0.00198276 -0.000181324
1938 1009 6 30.2725 21.8048 27.6084 0.00181868 -0.00425315 0.00182821
1939 1010 6 64.0623 12.5073 14.69 0.00493216 0.00348267 -0.002935
1940 1010 7 63.8191 12.4078 15.82 0.00287395 0.00157694 -0.00354565
1941 1010 6 64.2276 12.3556 16.9044 0.000954339 -0.00107957 -0.00295049
1942 1011 6 70.8179 48.1374 26.3857 0.00611618 -0.000600447 0.000779017
1943 1011 7 71.7149 48.6689 26.8939 0.0020192 -0.00155617 0.0090106
1944 1011 6 72.7834 48.8543 27.3072 0.0029773 0.00355486 0.00424168
1945 1012 6 31.3074 3.85015 0.876555 0.00674774 0.00360975 0.00701296
1946 1012 7 50.4647 15.0801 30.2872 0.00482805 0.00222911 0.00367172
1947 1012 6 51.1443 15.036 29.348 -0.00326729 0.00247188 -0.00219726
1948 1013 6 27.8313 9.45051 21.8268 -0.00600367 -0.000322826 0.00736209
1949 1013 7 27.3385 8.39958 21.8452 -0.00623328 -0.000307774 0.00206622
1950 1013 6 55.3686 55.1754 21.707 -0.00681821 0.000429512 -0.00539522
1951 1014 6 74.2801 41.7259 23.3674 0.000820448 0.00223284 -0.00164355
1952 1014 7 73.443 42.5206 23.4796 -0.00181489 -0.000977165 0.00143437
1953 1014 6 72.8641 43.348 24.0506 0.00165564 0.00200095 0.000638061
1954 1015 6 57.0291 21.9051 8.79333 -0.000611353 0.00304278 -0.00230447
1955 1015 7 57.2642 22.7936 8.0793 0.00317213 -0.00390221 -0.00969975
1956 1015 6 58.2047 23.3441 8.48186 -0.00378459 0.00493646 -0.00553352
1957 1016 6 64.3228 48.6021 28.4941 -7.62288e-05 0.000298632 0.00895292
1958 1016 7 63.6909 47.629 28.5331 -0.000118102 0.000115534 0.00371313
1959 1016 6 62.9341 47.1479 27.7967 -0.000677616 0.00447648 0.0014397
1960 1017 6 83.5107 45.9435 5.13811 -0.00559387 -0.0056953 0.000104019
1961 1017 7 29.1318 45.2353 4.87986 -0.00230965 -0.00144715 -0.000333316
1962 1017 6 30.0959 44.6639 4.57979 -0.000543668 0.00299746 -0.00312246
1963 1018 6 52.5062 45.9633 1.08262 0.000245092 0.00106545 -0.00104293
1964 1018 7 51.9039 46.6791 1.76826 0.00265326 0.00405247 -0.00204577
1965 1018 6 51.4054 47.1436 2.70906 0.00195298 0.00561336 -0.00318748
ITEM: TIMESTEP
175000
ITEM: NUMBER OF ATOMS
57
ITEM: BOX BOUNDS xy xz yz pp pp pp
0.0000000000000000e+00 1.0131084100000001e+02 2.7630201000000000e+01
0.0000000000000000e+00 5.8491914999999999e+01 1.8420141000000001e+01
0.0000000000000000e+00 3.0080027000000001e+01 1.0634897000000000e+01
ITEM: ATOMS id mol type x y z vx vy vz
1909 1000 6 22.902 19.9719 0.875923 0.00369282 -0.00452743 0.00129722
1910 1000 7 22.4813 19.4558 1.82673 0.000408789 -0.00392685 0.000170179
1911 1000 6 21.4018 19.2988 2.22339 -0.000705703 0.000284268 -0.0011963
1912 1001 6 34.9586 40.919 24.9931 0.0033741 -0.000754878 -0.00197224
1913 1001 7 35.0304 40.2787 25.9593 -0.00204135 -0.000689132 -0.00152571
1914 1001 6 34.6435 40.1951 27.0497 -0.00165653 0.00414424 -0.00101856
1915 1002 6 52.5022 37.9801 18.5774 -0.00657126 -6.58758e-05 0.00515499
1916 1002 7 51.7103 38.7485 18.2198 -0.00625486 -0.00467639 -0.00545207
1917 1002 6 51.1302 39.6252 17.7297 -0.00133414 0.00186273 0.000421858
1918 1003 6 87.2802 45.0459 28.1075 -0.000837218 0.0022089 -0.00281069
1919 1003 7 86.754 44.0334 27.899 0.000629409 0.000705416 0.000789597
1920 1003 6 85.9155 43.4575 28.459 0.00147102 0.00147681 0.00284332
1921 1004 6 78.8336 34.7559 13.7992 -0.0017123 0.00411882 -0.00088426
1922 1004 7 78.5693 33.7286 14.2707 -0.00492312 0.00531386 -8.06164e-05
1923 1004 6 77.6244 33.0897 14.0535 -0.000998976 0.00241841 -0.0086334
1924 1005 6 32.8542 16.6394 3.92739 -0.0016412 0.00678833 -0.00497745
1925 1005 7 32.171 17.1163 4.73226 -0.00435252 0.00150172 -0.00414639
1926 1005 6 31.7167 17.8145 3.92415 -0.00977974 -0.00108544 -0.00333039
1927 1006 6 52.4957 21.6621 8.85686 -0.00151047 0.00282635 0.000514239
1928 1006 7 53.1957 22.4488 8.36927 0.000783741 -0.00116651 -0.00263493
1929 1006 6 53.991 23.1808 8.7933 -0.00205405 0.00314131 -0.00474838
1930 1007 6 34.0348 19.8651 2.33834 0.00332341 0.00471425 0.000311719
1931 1007 7 33.0851 19.3286 1.94471 0.00344811 0.00355943 0.00158473
1932 1007 6 32.8316 19.4844 0.82212 -0.000313883 0.00626293 0.00280924
1933 1008 6 54.59 33.7314 24.1523 -0.000865956 0.000101868 0.00374347
1934 1008 7 53.7435 33.3069 24.8217 0.00159271 0.000601943 0.0071699
1935 1008 6 52.757 33.2924 25.4345 -0.00305209 -0.0028401 -0.000389341
1936 1009 6 33.1338 24.8622 27.2578 -0.000364701 -0.000194282 0.00142574
1937 1009 7 33.5305 24.98 26.174 -0.00319661 -0.00328818 5.27899e-05
1938 1009 6 33.0095 25.9778 25.8888 -0.00308985 -0.00355114 -0.00106228
1939 1010 6 64.577 12.2468 15.3823 0.00158664 0.00690107 -0.000937795
1940 1010 7 64.2867 12.0915 14.2698 -0.00123502 0.0038117 0.000229761
1941 1010 6 63.438 11.915 13.499 -0.00351901 0.00476695 0.00252604
1942 1011 6 53.9562 43.9334 3.15106 -0.0018592 0.00221631 0.00123476
1943 1011 7 54.0831 44.6219 4.07581 -0.00387585 0.00353269 0.000531433
1944 1011 6 53.8271 45.2115 5.04211 -0.0038078 -0.00160179 0.00368214
1945 1012 6 34.6908 5.62413 3.06676 -0.00418118 0.00168494 -0.00151116
1946 1012 7 33.559 5.45408 3.25566 -0.00384714 -0.000347035 -0.00133918
1947 1012 6 32.7055 5.51576 4.039 -0.00343094 -0.00392183 -0.000604185
1948 1013 6 53.7161 49.5984 19.9488 -0.00114929 -0.00159781 -0.00489666
1949 1013 7 54.7244 49.8251 20.4777 -0.0037486 -0.00191955 0.000196342
1950 1013 6 55.2554 50.7997 20.8185 -0.00603502 -0.00221433 0.00460296
1951 1014 6 68.2399 46.4119 22.629 0.000693318 -0.00178311 -0.00300367
1952 1014 7 68.4558 45.4429 23.2284 0.0026927 0.000860304 0.000549454
1953 1014 6 69.0574 44.4803 23.4679 -0.00168438 -0.00271913 -0.00284173
1954 1015 6 56.4798 19.0147 8.73971 0.00549076 0.0057305 -0.000305153
1955 1015 7 55.4723 19.2432 8.20386 0.00305783 0.0027175 0.00298444
1956 1015 6 55.3387 20.3963 8.1578 -0.000361201 0.00232541 0.00308587
1957 1016 6 50.3681 33.9206 3.18323 0.00357501 -0.00234088 -0.00478585
1958 1016 7 49.8931 34.7121 2.47916 -0.00117244 -0.00565993 -0.00531465
1959 1016 6 48.852 35.224 2.45366 -0.00126639 -0.00561491 -0.000574792
1960 1017 6 43.4048 52.0972 26.0023 0.00880444 0.00695133 -0.00512481
1961 1017 7 42.7144 52.9634 26.3464 0.0062788 0.00347749 -0.00144695
1962 1017 6 97.2327 53.7262 26.8082 -0.00055845 -0.00277515 -0.00210779
1963 1018 6 63.1308 54.3855 25.165 -0.00679455 0.00498721 -0.00485818
1964 1018 7 63.8187 55.0758 24.536 -0.00403922 0.00238074 -0.00470525
1965 1018 6 64.6332 55.4355 23.79 -0.00384471 -0.000701391 -0.00597868
ITEM: TIMESTEP
180000
ITEM: NUMBER OF ATOMS
57
ITEM: BOX BOUNDS xy xz yz pp pp pp
0.0000000000000000e+00 1.0131084100000001e+02 2.7630201000000000e+01
0.0000000000000000e+00 5.8491914999999999e+01 1.8420141000000001e+01
0.0000000000000000e+00 3.0080027000000001e+01 1.0634897000000000e+01
ITEM: ATOMS id mol type x y z vx vy vz
1909 1000 6 21.32 16.1881 3.40876 -0.00230506 0.00267336 0.00290355
1910 1000 7 21.3634 17.3446 3.49789 0.00157215 0.00269044 0.000794205
1911 1000 6 22.1742 18.125 3.21319 0.00406426 -0.00052049 -0.000909961
1912 1001 6 88.4847 46.5478 29.3335 -0.00126592 -0.000894781 0.00626227
1913 1001 7 89.5143 47.0733 29.223 0.00116512 -0.00646771 0.00241278
1914 1001 6 90.1748 47.6777 28.4853 -0.000242308 -0.0059315 0.00159207
1915 1002 6 47.4099 37.0172 21.0124 0.00124393 -0.00329927 0.00227464
1916 1002 7 48.4998 36.7423 20.7259 0.00177087 -0.00607191 0.00694013
1917 1002 6 49.6515 36.6715 20.6085 0.00134062 0.00366352 -0.00314807
1918 1003 6 93.1089 48.0744 27.1898 -0.00500812 -0.00396084 -0.00840603
1919 1003 7 92.243 48.8193 27.3919 -0.00180832 -0.00290716 0.00142173
1920 1003 6 92.1999 49.9793 27.4222 -0.000741663 -0.00279757 -0.00125219
1921 1004 6 79.8029 42.058 11.7526 0.00648752 0.000577939 -0.00490925
1922 1004 7 79.6479 42.1516 12.8992 -0.000251147 0.000908574 -0.00584747
1923 1004 6 80.3555 42.6808 13.6525 -0.000556677 -0.00601094 -0.000700693
1924 1005 6 46.4046 32.7179 28.7721 0.00277562 0.00244005 0.00569132
1925 1005 7 45.4282 33.29 29.0196 0.00313861 0.00323296 0.00529088
1926 1005 6 45.786 33.4137 30.1167 -0.00190128 -0.00617133 0.00799571
1927 1006 6 54.5452 20.9609 9.87133 -0.00610549 -0.0038225 -0.000398344
1928 1006 7 54.2643 21.806 9.12735 -0.00029939 0.000860807 0.00272941
1929 1006 6 54.6469 22.0986 8.07087 -0.00127601 -0.000430424 0.00201804
1930 1007 6 49.4535 31.2084 29.2473 0.00226443 -0.000304815 -0.00117254
1931 1007 7 48.5264 31.4904 29.8843 9.74044e-05 -0.00513962 -0.00218578
1932 1007 6 30.2415 20.8202 0.957187 0.000248828 -0.00035806 -0.00205686
1933 1008 6 70.0561 29.8578 29.4984 0.00485142 -0.00427286 0.00269129
1934 1008 7 69.7124 29.2378 28.5805 0.00262771 -0.00272253 0.00247679
1935 1008 6 69.7844 28.4877 27.6967 0.000125826 -0.00217846 0.00181124
1936 1009 6 33.8552 26.3645 26.5721 0.000906135 0.000439894 -0.00174869
1937 1009 7 34.4729 25.9983 25.6609 -0.0024112 0.000484686 -0.00401565
1938 1009 6 35.0001 26.9931 25.377 0.000911969 -0.00081642 -0.00240391
1939 1010 6 59.8523 9.23834 14.5911 0.00333297 -0.000225698 0.00143562
1940 1010 7 59.0605 9.037 15.4147 -0.00043599 0.00603865 -0.000656143
1941 1010 6 58.7175 9.23093 16.5058 0.00134278 0.00396208 0.000272257
1942 1011 6 15.0474 10.0221 10.0109 0.000827171 0.00215185 0.00443153
1943 1011 7 14.5665 11.0399 10.29 -0.00108111 0.00231242 0.000557927
1944 1011 6 14.4197 12.1863 10.3961 -7.11914e-05 0.00229144 0.00218298
1945 1012 6 58.5206 46.5862 2.36748 7.06932e-05 0.00194579 -0.00107492
1946 1012 7 58.7244 46.3964 3.49348 -0.000781247 -0.00447511 -0.00200336
1947 1012 6 58.3394 46.5748 4.57324 0.00161622 -0.00545636 -0.000986361
1948 1013 6 51.3128 49.123 14.8951 0.00123063 0.00113896 0.00329091
1949 1013 7 50.7358 49.848 15.5943 0.00248267 0.00335977 0.00202126
1950 1013 6 50.3546 49.7808 16.6889 -0.00746621 0.00166552 -0.00154787
1951 1014 6 54.444 26.4848 3.8849 0.00439207 -0.00410839 0.0041885
1952 1014 7 53.929 26.0587 2.93712 -0.0012895 -0.000609299 0.00570263
1953 1014 6 53.4243 26.1519 1.89678 0.0083596 0.00151849 0.00121131
1954 1015 6 56.2161 17.1878 8.77532 -0.000664364 0.00300109 0.000655123
1955 1015 7 55.5005 17.9819 9.23568 -0.000455949 0.00361134 -7.35519e-05
1956 1015 6 54.4396 17.5147 9.31084 0.000127807 0.00284131 0.00338057
1957 1016 6 51.5149 36.7708 2.64114 0.00213607 -0.002092 0.00207119
1958 1016 7 50.4796 36.5499 3.1176 -0.00034138 0.00300044 -0.000951053
1959 1016 6 49.608 35.8431 2.82186 -0.00181047 0.00523485 -0.0019613
1960 1017 6 75.003 15.1921 27.0953 0.00148817 -0.0054324 0.00662657
1961 1017 7 20.7608 15.3949 26.5781 -0.00122707 -0.000445312 0.00323659
1962 1017 6 21.7056 15.7295 25.9938 -0.00585301 0.00215188 -0.00275613
1963 1018 6 70.5929 56.2726 29.9523 0.0026583 0.00593286 -0.00144871
1964 1018 7 52.518 44.8938 0.692485 -0.000636554 0.00805075 0.00185877
1965 1018 6 52.5345 43.9953 1.4285 0.00333447 0.00115737 -0.00664572
ITEM: TIMESTEP
185000
ITEM: NUMBER OF ATOMS
57
ITEM: BOX BOUNDS xy xz yz pp pp pp
0.0000000000000000e+00 1.0131084100000001e+02 2.7630201000000000e+01
0.0000000000000000e+00 5.8491914999999999e+01 1.8420141000000001e+01
0.0000000000000000e+00 3.0080027000000001e+01 1.0634897000000000e+01
ITEM: ATOMS id mol type x y z vx vy vz
1909 1000 6 21.0256 15.8467 3.47341 0.000330266 -0.000166409 0.00326017
1910 1000 7 21.1507 16.948 3.81823 -0.00333531 0.000775398 0.00158166
1911 1000 6 21.5795 17.8914 3.29535 -0.003178 0.000625377 0.00143998
1912 1001 6 74.8913 37.2806 4.56345 -0.00178088 0.00149591 -0.00305314
1913 1001 7 74.2983 36.29 4.43912 -0.00179799 0.00199591 -0.00695564
1914 1001 6 74.4183 35.1391 4.35685 -0.00239711 0.00171871 -0.00395173
1915 1002 6 52.2782 37.3777 15.7113 -0.00392602 -0.00511196 -0.00393116
1916 1002 7 52.1173 38.3919 15.1718 -0.00107546 -0.00311529 -0.00102767
1917 1002 6 51.7103 39.3917 14.7475 7.53091e-05 -0.0030585 -0.00199793
1918 1003 6 70.5318 37.5743 3.18705 0.00163706 -0.00197771 0.00154965
1919 1003 7 70.7102 36.7288 2.41326 0.000215815 -0.00258406 0.00188451
1920 1003 6 71.6421 36.0842 2.15963 -0.000459749 -0.00328119 0.00117427
1921 1004 6 81.656 41.5379 12.8511 0.00542412 0.00103762 -0.0005095
1922 1004 7 81.3452 42.3969 12.1349 0.00209936 -0.00326843 -0.00423143
1923 1004 6 80.5136 42.3568 11.3256 -0.00284988 -0.00756789 0.0010677
1924 1005 6 29.8434 19.1533 3.87029 -0.00180554 0.00141457 -0.00191768
1925 1005 7 30.4176 19.8904 4.55515 0.00193619 0.00129316 -0.00492424
1926 1005 6 29.5725 20.6727 4.41139 0.0013316 0.00145846 -0.000470448
1927 1006 6 52.1261 23.5555 8.85793 0.00179888 -0.00438591 0.00132872
1928 1006 7 53.0528 23.3658 8.18565 0.00236642 0.00426941 -0.00033154
1929 1006 6 54.1685 23.1368 8.41108 0.00243293 0.00261928 -0.00233675
1930 1007 6 33.0113 19.6073 0.596105 0.00565241 0.0014906 0.000259431
1931 1007 7 33.8766 19.0205 0.0945702 0.00560906 0.00168919 -4.77593e-05
1932 1007 6 52.5799 29.975 29.0946 0.00127518 -0.00211507 -0.00230999
1933 1008 6 49.3654 20.982 1.90318 -0.000560718 0.00288309 -0.00387464
1934 1008 7 50.0206 20.0406 1.73156 -0.00368411 0.000821263 -0.00448852
1935 1008 6 50.7726 19.3311 1.2025 0.00283372 0.00380075 0.000780291
1936 1009 6 33.8321 23.333 27.5634 0.00189989 -0.000149781 -0.00218124
1937 1009 7 33.9232 24.4231 27.1771 0.00362453 0.000308137 -0.000482532
1938 1009 6 33.5409 24.9895 28.1159 -0.00109718 -0.000831223 -0.0017178
1939 1010 6 59.047 9.44138 18.0075 0.000986292 0.00212661 -0.00239835
1940 1010 7 60.0742 9.92277 17.7647 0.00015307 0.00613647 0.00202591
1941 1010 6 61.0813 10.3294 18.1723 0.00235987 -0.00241126 0.00510008
1942 1011 6 31.4498 21.9087 27.0089 -0.00536851 -0.00165619 -0.000784457
1943 1011 7 30.8845 22.3175 27.9355 0.0038892 -0.00502077 0.00634783
1944 1011 6 30.129 22.3805 28.8142 0.00137629 -0.00058082 0.00386923
1945 1012 6 59.3004 48.5178 1.08452 0.000820209 0.00535843 -0.00136401
1946 1012 7 31.0516 1.47961 1.62518 -0.000221905 0.00216724 0.0022767
1947 1012 6 31.0441 2.24718 2.49507 0.00299188 0.00581816 -0.000917114
1948 1013 6 32.5221 7.20456 18.6481 -0.00793749 -0.00716198 -0.000395766
1949 1013 7 33.3928 6.43992 18.5786 -0.00345196 -0.00195171 -0.00152591
1950 1013 6 61.6412 53.7047 19.3628 -0.00355087 -0.00353102 -0.00264056
1951 1014 6 51.9463 26.9844 3.14825 0.00145963 0.00334297 -0.00845101
1952 1014 7 53.0864 26.7865 3.07055 0.00146197 -0.000538362 0.00147241
1953 1014 6 54.0168 26.1096 2.92241 2.14411e-05 -0.00193877 -0.00117639
1954 1015 6 49.8456 25.7159 8.60136 0.00254828 0.00109074 -0.000388104
1955 1015 7 49.8345 24.9871 9.50864 0.00187892 0.00384915 0.00181948
1956 1015 6 48.8233 25.1161 10.0659 0.000673288 0.00415938 -0.000440115
1957 1016 6 52.9682 30.5961 6.60312 0.000683465 -0.000832874 0.00269538
1958 1016 7 54.0611 30.9254 6.39131 0.0010547 -0.00270323 0.00170286
1959 1016 6 54.8983 31.3656 7.06353 0.00358219 -0.00750941 0.00170207
1960 1017 6 74.8853 14.0675 29.9901 -0.00173632 -0.00177204 0.00544779
1961 1017 7 57.3321 4.13594 0.224923 -0.00056297 -0.00145802 0.00151613
1962 1017 6 58.0831 4.95575 0.55641 -0.000209766 -0.00292232 0.00433726
1963 1018 6 51.6368 47.5298 1.5582 0.00354752 0.000643028 -0.00248468
1964 1018 7 51.7101 47.1387 0.468688 0.00149795 0.00352159 -0.00365588
1965 1018 6 70.5646 57.3674 29.5509 -0.00154442 -0.0027435 -0.00242956
ITEM: TIMESTEP
190000
ITEM: NUMBER OF ATOMS
57
ITEM: BOX BOUNDS xy xz yz pp pp pp
0.0000000000000000e+00 1.0131084100000001e+02 2.7630201000000000e+01
0.0000000000000000e+00 5.8491914999999999e+01 1.8420141000000001e+01
0.0000000000000000e+00 3.0080027000000001e+01 1.0634897000000000e+01
ITEM: ATOMS id mol type x y z vx vy vz
1909 1000 6 20.5012 16.0376 4.44217 -0.00709074 0.00367126 -0.0021818
1910 1000 7 20.867 17.0994 4.14837 0.00428449 0.00143971 0.00391607
1911 1000 6 21.6761 17.4743 3.40537 0.0020349 -0.0026476 -0.000596105
1912 1001 6 71.9262 41.072 4.45784 -0.00344341 0.0013423 -0.00270409
1913 1001 7 72.8984 40.7095 4.97938 -0.00465517 0.0067162 0.00328961
1914 1001 6 74.0549 40.7967 4.95347 -0.00426606 0.000722844 0.000485061
1915 1002 6 46.5748 31.1741 14.1462 -0.00630069 0.00256375 0.00288877
1916 1002 7 45.6251 30.871 13.5533 -0.00423725 0.00173817 5.71872e-06
1917 1002 6 44.6287 30.4109 13.1778 -0.000270189 -0.0027032 -0.00507915
1918 1003 6 70.3074 37.4141 3.72115 -0.00360254 -0.00544372 0.000454793
1919 1003 7 69.3154 36.9166 3.38388 -0.00419294 -0.00353967 -0.000617334
1920 1003 6 69.0515 35.8294 3.07301 -0.00500673 -0.00206364 -0.00508879
1921 1004 6 31.5114 32.5855 12.8475 0.00863835 -0.0103837 0.00174453
1922 1004 7 31.893 33.6794 12.7761 -0.0019825 -0.0067571 0.000543843
1923 1004 6 32.8642 34.041 12.2524 -0.000290139 0.00085649 0.00894047
1924 1005 6 30.4973 16.8532 3.99449 0.00196145 -0.0026947 0.00632216
1925 1005 7 30.4868 17.372 5.03023 -0.00240176 0.000907517 0.0044737
1926 1005 6 29.4488 16.9012 5.24878 -0.00284481 0.000815097 0.00217026
1927 1006 6 57.2543 20.5917 9.38272 0.00317899 -0.00177149 -0.0030171
1928 1006 7 56.7046 20.853 8.39468 0.00445476 -0.00199664 -0.00378639
1929 1006 6 55.5839 20.947 8.106 0.00482412 -0.00224581 -0.0053015
1930 1007 6 27.0643 22.2601 1.84907 0.00252848 -0.00150417 0.00245734
1931 1007 7 27.8415 22.5299 2.66627 0.00291441 -0.000907418 0.00189321
1932 1007 6 27.493 22.4165 3.76826 0.00421423 -0.00238335 0.00215239
1933 1008 6 61.5754 32.2493 27.6435 0.00299438 0.00108374 0.00191141
1934 1008 7 61.3906 32.3399 26.5022 0.000383928 -0.00120966 0.00215235
1935 1008 6 60.7948 32.4304 25.5093 -0.00195163 -0.00558322 0.00315496
1936 1009 6 33.184 25.6618 27.1826 -0.000736085 -0.00115891 -0.000533088
1937 1009 7 34.0699 26.4067 27.1039 0.000454654 -0.00236258 0.0014767
1938 1009 6 33.5006 27.337 26.7057 0.00276159 -0.00183745 -0.000594884
1939 1010 6 63.6273 10.2285 13.5539 -0.000569253 0.000738361 0.0039567
1940 1010 7 64.129 11.2041 13.9312 0.00260595 0.00049785 0.000356084
1941 1010 6 64.0735 12.1155 14.6467 0.00708696 0.00169459 -0.000820309
1942 1011 6 10.9229 15.2315 5.09099 -0.00397736 -0.00599648 0.00806751
1943 1011 7 10.9892 14.1134 5.39218 0.00119104 -0.00708002 0.00290756
1944 1011 6 10.8789 12.9593 5.33883 -0.00424809 -0.00655835 0.00286842
1945 1012 6 35.1963 6.22493 3.50234 -0.00395786 0.00141252 -0.0014256
1946 1012 7 35.1539 6.4958 2.37527 -0.00131041 0.00245799 -0.00127404
1947 1012 6 35.7592 6.89373 1.46906 0.00055054 0.00424877 0.000755308
1948 1013 6 59.8145 51.1312 14.4851 -0.00506781 0.00218178 0.00802464
1949 1013 7 60.7887 50.5054 14.5697 -0.00591765 -0.00020386 0.000164288
1950 1013 6 61.3096 49.937 15.4377 -0.00138776 -0.00323109 -0.00453727
1951 1014 6 73.6322 36.5336 25.5655 -0.00345054 -0.000362452 -0.00444632
1952 1014 7 74.342 37.0792 24.8283 -0.00598052 0.00420103 -0.00350521
1953 1014 6 74.8801 37.2132 23.8093 0.00470973 0.000370093 0.00163552
1954 1015 6 50.7462 25.4137 12.7355 0.002101 -0.00149369 0.000128873
1955 1015 7 51.6894 25.9915 12.3739 -0.00103439 0.00271944 -0.00131703
1956 1015 6 51.6463 26.0686 11.2155 8.07881e-05 -0.00306234 -0.00174337
1957 1016 6 54.7808 34.8077 5.43059 0.00135691 5.08953e-05 0.00349096
1958 1016 7 54.6126 33.8311 4.8259 -0.000633442 0.00353202 -0.00157755
1959 1016 6 54.1766 32.7929 5.10646 0.00682857 -0.000336897 -0.004298
1960 1017 6 52.0203 56.3377 29.7222 0.00689115 -0.000891834 -0.00301244
1961 1017 7 51.8133 57.4685 29.5672 0.00567808 -0.000698364 1.88123e-05
1962 1017 6 24.0066 10.714 29.2524 -0.0067454 -0.00233923 0.00123784
1963 1018 6 67.6637 54.4189 27.4928 -0.000898828 -0.00260923 0.00148881
1964 1018 7 67.3458 53.304 27.5258 0.00590533 -0.0046624 -0.00232075
1965 1018 6 66.8541 52.2898 27.2446 0.00400083 -0.00423809 -0.000521044
ITEM: TIMESTEP
195000
ITEM: NUMBER OF ATOMS
57
ITEM: BOX BOUNDS xy xz yz pp pp pp
0.0000000000000000e+00 1.0131084100000001e+02 2.7630201000000000e+01
0.0000000000000000e+00 5.8491914999999999e+01 1.8420141000000001e+01
0.0000000000000000e+00 3.0080027000000001e+01 1.0634897000000000e+01
ITEM: ATOMS id mol type x y z vx vy vz
1909 1000 6 22.5436 17.7272 3.81153 -0.00173201 -0.000434209 -0.00103673
1910 1000 7 22.4486 18.5116 2.96118 -0.00322996 -0.00127203 -0.00164223
1911 1000 6 21.6916 19.3691 2.76387 0.00646043 0.00945571 0.00779999
1912 1001 6 37.6163 5.82151 6.35032 0.00674376 0.00171687 0.00390415
1913 1001 7 38.372 5.49911 5.52963 -0.000781686 0.00367815 -0.00379572
1914 1001 6 38.6589 4.62595 4.82184 -0.00369055 0.00317397 -0.00435273
1915 1002 6 40.8147 33.4751 13.796 -0.00328964 -0.00107994 -0.0008779
1916 1002 7 41.6856 33.5225 14.5607 -0.00240637 -0.00179961 -0.00183923
1917 1002 6 42.711 33.5503 15.1021 -0.00182059 -0.00508267 -0.00278036
1918 1003 6 66.6411 31.5684 4.59358 -0.000491026 0.000660923 0.00317171
1919 1003 7 67.1734 32.351 3.92312 -0.00118629 -0.00284416 -0.00147176
1920 1003 6 68.1951 32.3429 3.37134 -0.00174721 -0.0057187 -0.00246832
1921 1004 6 81.8113 37.448 21.9325 0.000400747 0.00625835 -0.00230871
1922 1004 7 81.421 37.421 20.8397 -0.00195475 0.00628327 -0.00146815
1923 1004 6 81.9821 36.9999 19.9144 -0.00204257 0.010572 -0.00347328
1924 1005 6 24.4906 19.7461 0.547079 -0.00487926 -0.00632481 -0.00238288
1925 1005 7 23.9805 20.7852 0.592666 -0.00143872 -0.00462927 -0.00253457
1926 1005 6 42.9986 31.7481 29.7337 0.00433925 -0.00460701 0.00115291
1927 1006 6 54.6233 18.8236 9.2792 -0.00715634 0.000480782 2.97223e-05
1928 1006 7 55.5038 18.092 9.08922 -0.00178926 0.00537667 0.00604845
1929 1006 6 55.5931 16.9343 9.08838 0.00333252 0.0057756 0.000912612
1930 1007 6 25.4101 21.3987 2.73236 -0.00127143 -0.00214732 -0.000877134
1931 1007 7 25.9079 20.8477 3.6231 -0.00656661 0.000854961 0.00393944
1932 1007 6 25.3064 19.9705 4.08927 -0.00620591 -0.00215894 -0.00126646
1933 1008 6 61.3228 32.3871 27.1715 -0.00318455 0.000201753 -0.00255923
1934 1008 7 62.4209 32.7593 27.1472 -0.00233663 -0.00182243 0.0047314
1935 1008 6 63.5677 32.7264 26.9666 -0.00232184 -0.00112337 0.00469797
1936 1009 6 14.3737 18.1593 1.71097 0.00437693 -0.00321806 0.00197239
1937 1009 7 15.1519 18.475 2.51132 0.00249616 -0.00140229 0.00308476
1938 1009 6 15.5309 19.4608 2.0288 8.93457e-05 5.64459e-05 0.00417433
1939 1010 6 63.6362 11.7461 12.0165 0.00548419 -0.00684029 -0.00432877
1940 1010 7 63.0063 11.1956 11.2126 -0.00335967 -0.000100904 -0.00201427
1941 1010 6 62.0894 10.5227 10.9847 -0.00635775 0.00251056 0.00233726
1942 1011 6 26.5104 24.8674 24.611 0.00181061 3.63529e-05 -0.000331722
1943 1011 7 27.5576 24.4236 24.8385 0.00330609 0.00440614 0.00130899
1944 1011 6 28.6075 23.9592 24.6689 -0.00228437 -0.00915411 0.00382946
1945 1012 6 41.5471 3.99397 2.04358 -0.00176018 0.00487244 0.00255226
1946 1012 7 41.845 3.37749 1.10728 -0.00331393 0.00223701 0.00379306
1947 1012 6 42.7035 2.8005 0.581811 -0.00336661 0.00320945 0.00263922
1948 1013 6 59.5726 50.0129 14.3922 0.00156898 0.00425373 -0.00338503
1949 1013 7 59.3184 49.6152 13.3316 0.0032105 -0.00464326 -0.000442705
1950 1013 6 58.3973 49.0801 12.8699 0.000802809 -0.00152829 0.0007496
1951 1014 6 57.5744 27.582 1.66418 -0.00123236 -0.00177416 0.00464127
1952 1014 7 58.3518 27.3487 2.49256 -0.000200994 -0.00786006 0.00195913
1953 1014 6 58.6934 27.2306 3.59491 0.00353888 -0.00743485 0.00084575
1954 1015 6 54.9143 27.5283 14.7253 -0.00496134 -0.000845797 -0.00185482
1955 1015 7 55.1357 28.1768 15.666 -0.00178398 -0.000187819 -0.00305616
1956 1015 6 54.2781 28.0104 16.4319 -0.00313323 0.0062319 -0.00317281
1957 1016 6 59.7867 36.2155 3.1515 0.00506954 0.00303282 0.00290186
1958 1016 7 60.1651 35.1621 2.84324 0.00408481 0.00161808 0.00652734
1959 1016 6 61.1863 34.7717 2.4543 -0.000805844 0.00194693 -0.0066439
1960 1017 6 47.7717 53.2377 24.875 0.00165383 0.00478938 -0.00206429
1961 1017 7 48.8262 53.3266 25.3499 0.00224498 -0.00112269 -0.00227043
1962 1017 6 49.8133 53.3472 25.9592 0.00123639 -0.00179018 -0.000613769
1963 1018 6 52.5723 44.1915 1.74326 -0.000730262 -0.00670135 -0.00181751
1964 1018 7 53.4638 43.4534 1.81911 0.00246827 -0.0025855 0.000633971
1965 1018 6 54.399 42.8929 2.21998 0.00212945 -0.000331177 0.00457639
ITEM: TIMESTEP
200000
ITEM: NUMBER OF ATOMS
57
ITEM: BOX BOUNDS xy xz yz pp pp pp
0.0000000000000000e+00 1.0131084100000001e+02 2.7630201000000000e+01
0.0000000000000000e+00 5.8491914999999999e+01 1.8420141000000001e+01
0.0000000000000000e+00 3.0080027000000001e+01 1.0634897000000000e+01
ITEM: ATOMS id mol type x y z vx vy vz
1909 1000 6 21.6293 16.5573 3.75593 -0.000931937 0.00191992 -0.000293819
1910 1000 7 22.6581 17.0806 3.87899 -0.00222766 0.00429855 0.000424799
1911 1000 6 22.9791 18.1959 3.8662 -0.00351594 0.00457183 -0.00807107
1912 1001 6 30.411 7.78475 11.9929 -0.0046943 0.00158753 0.00111389
1913 1001 7 31.5358 7.50983 11.9046 -0.0050033 0.00092964 -0.000775494
1914 1001 6 32.6058 7.95779 11.9179 -0.00445544 -0.000499506 0.00329029
1915 1002 6 40.9093 35.2145 11.569 0.000721385 0.00286787 -0.00373067
1916 1002 7 40.1716 36.0879 11.3734 0.00303486 0.00561905 -0.000170032
1917 1002 6 39.5162 37.0436 11.4239 0.00028137 0.00336438 0.00675826
1918 1003 6 68.4424 35.8633 0.383218 0.00616417 0.00275341 0.00165357
1919 1003 7 67.6883 34.9827 0.347225 0.00500598 0.00379529 0.000428517
1920 1003 6 67.7631 33.8743 0.685222 0.00284974 0.00374867 0.000752303
1921 1004 6 86.044 40.2682 19.034 0.00583605 0.00225281 -0.00292325
1922 1004 7 85.5642 39.5064 19.7667 0.00400396 0.00437762 -0.00191398
1923 1004 6 30.5908 38.388 19.8888 0.00263908 0.00433917 0.000945467
1924 1005 6 26.0502 15.4689 6.14855 0.00126432 -0.0058199 -0.00290934
1925 1005 7 25.574 16.5157 6.00923 0.0023143 -0.00542517 -0.00353246
1926 1005 6 24.6875 16.0298 5.43917 -0.000498937 -0.00539331 0.000815172
1927 1006 6 60.4921 23.106 18.0393 3.58029e-06 -0.00283989 -0.00450842
1928 1006 7 59.786 23.7922 17.4252 0.00120717 0.00569888 0.00364828
1929 1006 6 58.6511 23.7563 17.1823 0.00219377 0.00765346 -0.00125121
1930 1007 6 55.1327 31.8342 27.7946 -0.00120317 -0.00115794 -0.00102532
1931 1007 7 56.0991 32.37 27.4428 -0.00409778 0.00836638 0.0055286
1932 1007 6 56.0494 32.8998 26.4105 0.00125382 -0.00201163 -5.51723e-05
1933 1008 6 63.5578 31.334 26.6438 0.00195112 -0.00138256 0.000951294
1934 1008 7 63.5114 31.6208 27.7665 5.21717e-05 0.0006131 0.000363058
1935 1008 6 63.0393 31.8951 28.7917 -0.00169478 0.00198297 -0.000807896
1936 1009 6 14.2016 20.0287 0.36742 -0.00234126 -0.0018873 -0.00462624
1937 1009 7 15.359 20.0612 0.294771 -0.00258999 0.00277345 -0.00650141
1938 1009 6 33.9548 29.7524 29.7216 0.00074984 -0.00146458 0.000519668
1939 1010 6 15.0563 4.81788 14.5564 0.00212128 -0.00952613 -0.00103257
1940 1010 7 14.8812 4.41152 13.484 -0.000344842 0.00246949 -0.00517535
1941 1010 6 42.9758 51.9969 12.4563 0.00086914 -0.00522934 -0.00259215
1942 1011 6 76.6169 30.4359 29.1777 -0.00633132 -0.000698418 0.00170969
1943 1011 7 77.4878 30.6637 28.4463 -0.0102721 0.00736129 -0.000472165
1944 1011 6 78.134 30.6597 27.4823 -0.00366389 -0.00147456 0.00399402
1945 1012 6 58.008 14.7877 29.2613 0.0007474 -0.000779939 0.00336101
1946 1012 7 58.6614 15.4511 28.5696 -1.09147e-05 -0.000290168 0.00311441
1947 1012 6 59.3309 15.4674 27.6223 -0.00167008 0.000537489 0.00195617
1948 1013 6 28.0792 7.19155 9.26855 -0.00538961 -0.00337598 0.000928144
1949 1013 7 28.3706 6.4059 10.0719 -0.0034046 -0.000406306 0.00311211
1950 1013 6 27.7881 5.85874 10.9141 -0.00370054 -0.00493104 -3.25939e-05
1951 1014 6 55.4855 26.8121 2.62558 -0.00355912 -0.00776402 0.00257198
1952 1014 7 54.7777 26.6583 1.7199 -0.00169387 -0.00796977 0.00114906
1953 1014 6 53.7359 26.5623 1.21851 -0.000737544 -0.00350907 -0.0016919
1954 1015 6 52.5116 26.3754 14.8313 0.000587288 6.14427e-05 0.000862611
1955 1015 7 53.5395 26.5124 14.303 0.00122525 -0.00146002 0.00170938
1956 1015 6 54.0534 27.4549 14.747 0.0036426 -0.0040285 0.00436447
1957 1016 6 61.0977 34.0117 3.01004 0.00783605 0.00344414 0.00491456
1958 1016 7 60.7707 32.9692 3.40244 -0.00132485 0.00377681 -0.00183585
1959 1016 6 60.9926 31.8864 3.04901 0.00323268 0.00360992 0.00153643
1960 1017 6 44.4782 54.7886 28.7377 -0.00315722 0.00456525 -0.000924407
1961 1017 7 43.5476 54.2504 29.1732 -0.00562142 0.00446825 -0.00631002
1962 1017 6 97.8298 53.8614 29.6608 -0.000311957 0.00195337 0.00233573
1963 1018 6 70.4249 55.2256 27.7312 -0.000824738 0.000234822 0.000303132
1964 1018 7 69.49 54.5506 27.606 0.00244587 -0.00596608 0.00931194
1965 1018 6 68.3913 54.1744 27.6323 0.00222772 -0.00583618 0.00206476
ITEM: TIMESTEP
205000
ITEM: NUMBER OF ATOMS
57
ITEM: BOX BOUNDS xy xz yz pp pp pp
0.0000000000000000e+00 1.0131084100000001e+02 2.7630201000000000e+01
0.0000000000000000e+00 5.8491914999999999e+01 1.8420141000000001e+01
0.0000000000000000e+00 3.0080027000000001e+01 1.0634897000000000e+01
ITEM: ATOMS id mol type x y z vx vy vz
1909 1000 6 21.5407 15.8981 3.24453 -0.000348956 -0.000352414 0.00297967
1910 1000 7 22.6015 15.7883 3.70283 -0.000275178 0.00411542 0.00387956
1911 1000 6 23.0093 15.9212 4.78141 -0.00359263 -0.00399999 0.00613406
1912 1001 6 50.0458 49.609 22.6659 -0.00236074 -0.000283538 -0.00216238
1913 1001 7 50.7346 49.3189 21.7772 0.000481982 -0.00584714 0.00185709
1914 1001 6 50.801 48.6476 20.8335 0.00218468 -0.00934578 0.00446564
1915 1002 6 40.3196 39.4242 17.542 -0.00102726 0.00298418 0.00306283
1916 1002 7 40.0175 38.582 18.2802 -0.00533917 -0.000400741 -0.00256331
1917 1002 6 39.9654 37.6465 18.964 -0.00442654 0.00365595 0.00305598
1918 1003 6 73.6455 28.7589 5.14462 0.00176845 -0.00132587 -0.0015619
1919 1003 7 73.5127 29.8997 5.30638 0.00347556 -0.00117209 -0.00124517
1920 1003 6 73.3122 30.5372 6.25597 0.00511716 -0.00106999 -0.000967084
1921 1004 6 32.9805 41.1523 14.8331 -0.00124139 0.000160659 0.000745908
1922 1004 7 32.3879 41.5887 13.9354 -0.00341198 -0.00355253 0.000373831
1923 1004 6 31.2632 41.8771 13.9229 -0.00178015 0.00296816 0.00399801
1924 1005 6 24.6007 14.0469 6.21161 -0.00149742 0.00348681 -0.00256742
1925 1005 7 24.8757 15.062 6.69739 -0.00462297 0.00472324 -0.00338176
1926 1005 6 25.812 15.128 6.01487 -0.00192546 0.00448751 0.00029605
1927 1006 6 63.3863 30.6844 12.9209 -0.00201134 0.000993292 0.00249601
1928 1006 7 62.822 31.2578 12.0845 -0.00476844 -0.000388327 0.00340876
1929 1006 6 62.8065 32.3697 11.7503 -0.00630471 -0.000837066 0.00198736
1930 1007 6 55.5294 37.9292 26.1138 -0.00413411 0.00363234 0.000942647
1931 1007 7 56.2965 37.5761 25.319 -0.005186 0.00777131 -0.00191178
1932 1007 6 55.8767 36.9401 24.4427 -0.00457941 0.00326794 0.00106579
1933 1008 6 62.5394 32.8737 27.093 0.0018023 -0.00456206 -0.000724326
1934 1008 7 61.7317 32.5924 26.3098 -0.00240321 0.0029337 0.000921113
1935 1008 6 60.6896 32.2911 25.8947 -0.00328784 0.00148774 0.00419221
1936 1009 6 15.072 19.6268 2.40687 -0.000142946 -0.0020144 0.00326923
1937 1009 7 14.5838 18.7703 1.79538 0.00582311 -0.00496983 0.00264452
1938 1009 6 15.1332 18.9224 0.783853 -0.000223386 0.00391011 0.000694972
1939 1010 6 52.0634 45.2333 24.3601 0.00355471 -0.00408321 0.00291577
1940 1010 7 50.9262 45.0404 24.235 0.0043534 -0.00182204 -0.00783895
1941 1010 6 49.8672 45.4979 24.1135 0.00401837 0.000457144 0.00365719
1942 1011 6 14.8156 12.7653 0.600169 -0.000652686 -0.00453521 -0.00112704
1943 1011 7 15.3388 13.6368 1.15879 -0.00328067 -0.00170596 -0.00307942
1944 1011 6 15.5946 14.4028 1.99229 0.00214991 -0.00666943 -0.000185142
1945 1012 6 40.9458 3.54276 2.92773 0.00606121 -0.000383799 0.00300107
1946 1012 7 40.39 4.51558 3.2281 0.00251209 -0.00207296 0.0019048
1947 1012 6 40.2728 5.33057 4.0454 0.00306197 0.00110349 -0.00118388
1948 1013 6 27.5825 5.69352 8.11549 0.00288433 -0.00137195 -0.00264429
1949 1013 7 26.8323 6.53379 8.39602 0.00382628 -0.00104675 -0.00109925
1950 1013 6 25.9071 6.58894 9.09519 0.00373821 -0.0013646 -0.00119072
1951 1014 6 57.1665 26.2312 2.4979 -0.00305214 0.00479687 -0.00239992
1952 1014 7 56.7655 27.0908 3.16521 -1.39782e-05 0.00206335 0.00294692
1953 1014 6 56.6647 28.2029 3.47983 0.00228174 0.000666795 0.00861889
1954 1015 6 49.8441 24.9525 16.6204 0.000882399 4.82591e-05 0.00274361
1955 1015 7 49.7432 25.452 15.5741 0.00866869 -0.00215948 0.000938735
1956 1015 6 49.1134 24.7501 14.8957 0.00399928 0.00175537 0.00122286
1957 1016 6 59.165 40.6992 5.97102 -0.00254215 0.00113866 0.00273821
1958 1016 7 59.9999 40.1274 6.5399 -0.000300846 -0.000467747 -0.00216599
1959 1016 6 60.0341 39.6011 7.57358 0.00608342 0.00329635 -0.000461189
1960 1017 6 43.6822 55.1252 24.9584 0.00107451 -0.0014601 0.00582028
1961 1017 7 43.7298 56.1351 25.5271 -0.00203906 0.00176451 0.000354311
1962 1017 6 71.4646 9.35161 25.9544 0.00780282 0.00152703 -0.00145537
1963 1018 6 24.5824 0.621494 0.983936 0.000670679 -0.00404387 -0.000587984
1964 1018 7 51.6342 48.513 1.98869 -0.00189146 0.00933129 -0.00252268
1965 1018 6 50.7771 48.4412 2.76949 0.000720924 0.000713586 -0.000448151
ITEM: TIMESTEP
210000
ITEM: NUMBER OF ATOMS
57
ITEM: BOX BOUNDS xy xz yz pp pp pp
0.0000000000000000e+00 1.0131084100000001e+02 2.7630201000000000e+01
0.0000000000000000e+00 5.8491914999999999e+01 1.8420141000000001e+01
0.0000000000000000e+00 3.0080027000000001e+01 1.0634897000000000e+01
ITEM: ATOMS id mol type x y z vx vy vz
1909 1000 6 21.1158 19.7719 2.74329 0.00151129 0.00266346 0.00157903
1910 1000 7 21.5603 20.2335 1.77543 0.00274249 0.00395018 0.0027581
1911 1000 6 22.5251 20.0108 1.16971 0.00322168 0.00436444 0.00336903
1912 1001 6 42.2159 33.0584 14.4078 0.00929376 0.00317604 -0.000360367
1913 1001 7 41.5809 32.713 15.3167 0.00156383 0.00485759 -0.00512228
1914 1001 6 41.1998 33.0405 16.3622 0.00323779 0.00169832 -0.00352253
1915 1002 6 41.4963 37.878 18.9969 0.00127064 -0.00392351 -0.00285
1916 1002 7 40.9408 37.0206 19.5461 -0.00115779 -0.00157407 -0.00163824
1917 1002 6 40.2087 36.1891 19.8898 -0.00428483 0.00199198 0.000327633
1918 1003 6 19.7903 25.5112 0.204664 0.0010629 -0.00176451 -0.00832527
1919 1003 7 37.1368 36.1019 29.848 -0.000782161 -0.000750763 -0.00389096
1920 1003 6 36.3442 35.2545 29.8043 -0.00261151 0.000687002 0.00139905
1921 1004 6 33.5301 39.0909 17.924 0.00225229 -0.000596734 -0.00413774
1922 1004 7 32.4727 38.7569 17.5809 0.00198131 -0.00221462 -0.001727
1923 1004 6 31.9546 39.0229 16.5764 -0.00407767 0.00395868 0.00303321
1924 1005 6 28.274 18.5216 5.47451 -0.00711218 6.23131e-05 0.00175556
1925 1005 7 28.7822 18.0982 6.42556 -0.000987245 0.00382821 0.000159
1926 1005 6 28.2516 17.0813 6.249 0.00073406 0.0019907 0.00556909
1927 1006 6 64.2386 25.9432 9.73512 -0.000489398 -0.00138232 -0.00190376
1928 1006 7 63.7989 26.3168 10.742 0.000110561 -0.00151769 -0.00159153
1929 1006 6 63.6911 27.3674 11.2245 0.00301707 -0.00189185 -0.000127587
1930 1007 6 48.5231 51.3508 26.2022 0.00293069 0.0119262 -0.00268898
1931 1007 7 47.8212 51.3587 27.1253 0.00566879 -0.00105445 -0.000496394
1932 1007 6 46.7482 50.9456 26.9617 0.00616206 -0.00160006 -0.00235463
1933 1008 6 65.4804 32.3458 26.3699 0.0035169 0.00130794 0.000779805
1934 1008 7 66.4578 32.0344 25.8289 0.000309906 -0.0032555 -0.00238722
1935 1008 6 67.4803 31.5083 25.6657 0.00179196 -0.000507991 -0.00195914
1936 1009 6 33.2386 30.1128 27.8513 0.000272823 0.000462594 0.00216403
1937 1009 7 32.8502 29.3468 28.6312 0.00321774 -0.000214538 0.00296539
1938 1009 6 33.2968 28.3743 28.1805 0.00106821 0.000106497 0.000142993
1939 1010 6 59.3265 46.8903 27.6471 -0.0040495 -0.00410036 0.0038202
1940 1010 7 58.4474 46.1337 27.6211 -0.000917331 -0.00753486 -0.00213372
1941 1010 6 57.6776 45.5553 26.9743 -0.00404682 0.000757421 -0.00582416
1942 1011 6 33.8335 23.6625 27.8097 -0.00259605 -0.00360184 -0.00183631
1943 1011 7 32.6776 23.7031 27.8964 -0.0020824 -0.000286963 0.00346004
1944 1011 6 31.5897 23.3903 28.1523 -0.00264939 -0.00169691 -0.000672452
1945 1012 6 40.1244 5.63206 3.65949 0.00160074 0.000647976 0.00151601
1946 1012 7 40.3319 6.34466 4.55091 0.00268896 -0.000389203 0.00209188
1947 1012 6 40.4517 7.45194 4.87573 -0.00341236 -0.000428082 0.0044751
1948 1013 6 27.5779 4.70805 7.86397 0.00183071 -0.00204477 0.00442479
1949 1013 7 27.174 3.76248 8.40289 -0.00242327 -0.00222053 0.000928639
1950 1013 6 26.3785 3.58263 9.22913 -0.000448431 -0.00130966 0.00302841
1951 1014 6 52.9717 32.4848 3.60416 -0.00159578 -0.00228028 0.00067365
1952 1014 7 52.1549 33.293 3.44698 -0.00153207 -0.00386006 -0.00778085
1953 1014 6 51.1052 33.7574 3.61502 0.00479217 0.00708126 0.00148689
1954 1015 6 49.3828 22.4978 17.8159 -0.000117265 -0.00481237 0.00101083
1955 1015 7 48.7358 21.8612 18.5443 0.00137414 -0.00537337 0.00184522
1956 1015 6 49.1011 20.7599 18.4867 0.00445639 -0.00445589 0.00385443
1957 1016 6 64.9944 32.3516 8.47684 -0.00186727 -0.000194484 0.00263121
1958 1016 7 65.042 33.5114 8.49247 0.000554373 -0.000302526 0.00327696
1959 1016 6 64.2421 34.3329 8.67113 0.00214057 0.00128199 0.00309232
1960 1017 6 23.7341 12.7892 24.7571 0.00052758 -0.00310337 0.00545008
1961 1017 7 24.8392 12.442 24.8169 0.00205327 0.00249973 0.00978198
1962 1017 6 25.9637 12.1697 24.7308 -0.000349729 -0.00629316 0.00621259
1963 1018 6 13.2116 1.65495 3.81013 -0.00616752 -0.00150331 -0.00379006
1964 1018 7 14.2968 1.91719 4.12473 -0.00671725 -0.00437146 0.000497002
1965 1018 6 15.4279 1.8161 4.36907 -0.00536305 -0.00491442 -0.00599643
ITEM: TIMESTEP
215000
ITEM: NUMBER OF ATOMS
57
ITEM: BOX BOUNDS xy xz yz pp pp pp
0.0000000000000000e+00 1.0131084100000001e+02 2.7630201000000000e+01
0.0000000000000000e+00 5.8491914999999999e+01 1.8420141000000001e+01
0.0000000000000000e+00 3.0080027000000001e+01 1.0634897000000000e+01
ITEM: ATOMS id mol type x y z vx vy vz
1909 1000 6 28.3333 16.4199 5.55236 -0.00211418 0.00523123 0.000232861
1910 1000 7 27.8054 15.812 6.38853 0.00140783 0.00515575 0.00240141
1911 1000 6 27.4884 16.0781 7.47298 0.00351917 0.00591427 0.00283234
1912 1001 6 42.0996 34.7258 12.0357 0.00607499 0.00232539 0.00784248
1913 1001 7 43.0056 35.2492 11.532 0.00309525 0.00235125 0.00250959
1914 1001 6 43.8426 35.1022 10.7423 0.00176343 0.000378016 0.00146515
1915 1002 6 45.6767 43.2108 14.4313 -0.00192502 -0.00365341 -0.00406096
1916 1002 7 45.8957 44.0092 15.2438 -0.000213805 -0.00823626 -1.92774e-05
1917 1002 6 46.3513 44.831 15.9238 0.000536691 -0.0108635 0.00265285
1918 1003 6 18.8736 25.3656 0.602207 0.00470247 0.00130067 0.00505663
1919 1003 7 18.3113 26.027 1.3715 0.00320771 0.00773471 -0.00156769
1920 1003 6 17.1905 26.3051 1.49294 0.000846793 -0.00387664 0.0032322
1921 1004 6 30.2786 43.0259 10.8721 0.00360732 -0.00273763 0.00474209
1922 1004 7 29.5952 43.4912 11.6869 -0.00292879 0.00572355 -0.00557308
1923 1004 6 84.0428 42.94 12.3062 -0.0026279 0.0104457 -0.00097483
1924 1005 6 31.2536 10.4112 11.3958 -0.00111843 0.00122676 0.00712624
1925 1005 7 31.0952 9.74997 12.3338 -0.00140671 -0.00387723 0.00347959
1926 1005 6 32.2099 9.42991 12.2889 -0.000341741 -0.000324115 0.00459062
1927 1006 6 18.5544 22.405 10.6291 -0.000155436 -0.00312955 0.0035089
1928 1006 7 17.7356 22.0173 9.90394 -0.00259519 0.00156572 0.00375298
1929 1006 6 17.7437 21.7023 8.78638 -0.00561951 0.00549651 0.00262316
1930 1007 6 71.5086 10.208 26.3507 0.0074763 0.00516408 -0.0108264
1931 1007 7 71.2602 9.74561 25.3167 0.00158672 -0.000386312 -0.00692991
1932 1007 6 43.6346 56.4429 25.2548 -0.00119923 -0.000760448 -0.000128737
1933 1008 6 51.7399 19.4208 0.506421 0.00574748 -0.000754074 -0.00216543
1934 1008 7 69.4978 30.331 29.6751 0.00179422 -0.00114841 0.000588105
1935 1008 6 68.5292 30.5048 29.0582 -0.000823489 -0.0038159 0.00394699
1936 1009 6 13.6127 18.8104 2.4598 -0.000637388 0.00391681 0.00112986
1937 1009 7 14.2155 17.8224 2.38023 -0.00328118 0.00219814 0.00244012
1938 1009 6 15.2902 18.246 2.49803 -0.00174233 0.000246085 -0.00458044
1939 1010 6 33.7581 27.8899 0.544866 0.00511218 -0.00185884 0.00143419
1940 1010 7 51.9745 38.5464 29.483 -0.00972671 -0.000332834 0.00411007
1941 1010 6 51.85 37.9382 28.5031 0.00010483 0.00278733 0.000924222
1942 1011 6 33.2975 23.1967 27.2722 0.00544102 0.00167861 -0.00102067
1943 1011 7 33.0746 23.9008 28.1665 -0.000470274 -0.001667 0.000139804
1944 1011 6 33.1573 24.7992 28.8966 -0.00961186 -0.00086722 0.000191745
1945 1012 6 59.8775 14.8724 29.1822 -0.0065776 -0.000241611 0.000847045
1946 1012 7 61.007 14.6264 29.0862 -0.00523456 0.00839634 -0.00547925
1947 1012 6 61.8238 14.1543 28.4109 -0.00777394 0.00122386 -0.00353623
1948 1013 6 28.1119 5.71859 7.68872 0.00142891 0.00142988 0.00544272
1949 1013 7 27.3482 5.79627 8.55958 -0.00553384 0.00440427 -0.000928328
1950 1013 6 26.499 5.10859 8.95171 -0.000854616 0.000278396 0.00197034
1951 1014 6 54.0492 25.2228 1.03434 0.00165655 0.00237059 -0.000844926
1952 1014 7 54.4691 25.432 2.09497 0.00555603 0.000921195 -0.0021028
1953 1014 6 55.306 25.4461 2.89819 0.00902536 0.00167921 -0.00573097
1954 1015 6 52.4443 26.566 15.0723 -0.000240825 0.0016906 -0.000614218
1955 1015 7 52.9956 26.8026 14.0751 -0.00136181 0.00223988 -0.0011037
1956 1015 6 53.9521 26.1452 14.0239 -0.000718914 0.00323892 -0.00192333
1957 1016 6 64.2117 35.9001 9.42199 -0.00033621 0.0057719 0.00209752
1958 1016 7 64.7897 36.2719 8.48639 -0.00287545 0.000748977 -0.00146722
1959 1016 6 64.6623 37.1938 7.79322 0.000205394 0.00129344 -0.00130962
1960 1017 6 55.8914 7.4106 4.6673 -0.00153553 -0.0010095 0.00650792
1961 1017 7 56.2914 6.32877 4.54467 -0.00381605 -0.000911 -0.00179989
1962 1017 6 56.5414 5.19824 4.47067 -0.000667515 -0.00077054 0.0066885
1963 1018 6 47.596 48.6358 6.27183 0.00299804 -0.00172925 0.000213256
1964 1018 7 46.5734 48.2347 5.8993 0.0027838 -0.00352262 0.00273189
1965 1018 6 45.4288 48.1104 5.74503 0.00282304 -0.00205362 0.00125667
ITEM: TIMESTEP
220000
ITEM: NUMBER OF ATOMS
57
ITEM: BOX BOUNDS xy xz yz pp pp pp
0.0000000000000000e+00 1.0131084100000001e+02 2.7630201000000000e+01
0.0000000000000000e+00 5.8491914999999999e+01 1.8420141000000001e+01
0.0000000000000000e+00 3.0080027000000001e+01 1.0634897000000000e+01
ITEM: ATOMS id mol type x y z vx vy vz
1909 1000 6 29.6951 13.9163 6.24976 0.00407255 -0.00283758 0.00298002
1910 1000 7 29.649 14.8456 6.94382 0.000298921 -0.000380885 -0.000559779
1911 1000 6 28.7674 15.4909 7.3357 -0.00250581 -0.00377418 -0.00128176
1912 1001 6 49.9383 38.8409 8.22377 0.00138556 0.00016428 -0.00449197
1913 1001 7 48.9161 38.8517 8.77473 -0.000457682 0.00572119 -0.00802056
1914 1001 6 47.8055 38.5304 8.67935 0.00134002 -0.00119967 -0.00563488
1915 1002 6 48.5168 40.2443 17.2469 0.00390965 0.000371823 0.00605904
1916 1002 7 49.3994 39.4918 17.2661 0.00381421 -2.98168e-05 -0.00531344
1917 1002 6 50.4098 38.9419 17.4147 0.000581194 -0.00589535 -0.00503708
1918 1003 6 24.1066 28.2874 0.0303186 0.000803292 -0.00760399 -0.00188244
1919 1003 7 23.2419 28.0095 0.751734 0.00178394 7.06147e-06 0.00222483
1920 1003 6 22.0895 28.1303 0.675043 0.00153552 -0.00276707 0.00158672
1921 1004 6 82.6675 41.45 21.6168 0.00468037 -0.00252807 -0.000435146
1922 1004 7 81.8084 41.6195 20.8548 -0.00142419 0.00270708 0.0076118
1923 1004 6 81.8068 42.3703 19.969 -0.00132138 -0.00417332 0.00178081
1924 1005 6 30.7925 11.1308 10.3742 0.00149842 -0.00196075 0.00602996
1925 1005 7 31.4254 10.3199 9.84146 -0.000963298 0.000766304 -0.00104584
1926 1005 6 32.2674 11.0995 9.66814 -0.000354128 0.000793977 0.00203808
1927 1006 6 76.3801 25.4804 18.1436 0.00172685 0.00744888 0.00200841
1928 1006 7 21.5223 25.1989 17.0923 -0.00124866 -0.00135013 0.00322509
1929 1006 6 76.8421 25.7679 16.0819 0.00356967 -0.00680928 0.000433249
1930 1007 6 57.4991 3.24219 2.80015 -0.000874949 0.00473945 0.00421713
1931 1007 7 57.1619 2.63663 3.72986 0.000351675 -0.00020054 0.00144439
1932 1007 6 57.9791 2.41063 4.52341 0.000822681 -0.00222886 0.000381659
1933 1008 6 51.0729 17.8132 3.64013 0.00627967 0.00214805 0.00300086
1934 1008 7 50.8751 18.8903 3.25858 0.00236654 0.00210474 0.00490737
1935 1008 6 50.2983 19.7752 2.77549 0.000317686 7.01544e-05 0.00362691
1936 1009 6 14.5509 20.0676 -0.171742 0.00166237 -0.000575303 -0.00379545
1937 1009 7 15.6061 19.9032 0.281356 -0.000253165 0.00178237 0.00152127
1938 1009 6 15.313 19.3053 1.23259 -0.00367477 0.000777085 -0.000164942
1939 1010 6 57.361 39.3067 28.2529 0.000860523 0.00359679 0.0016886
1940 1010 7 57.9163 38.3334 28.5531 -0.000279139 0.00198518 -0.00142843
1941 1010 6 58.0773 37.5102 29.3543 0.00534923 0.0041382 -0.000347248
1942 1011 6 33.7665 23.1226 29.3285 -0.000761902 0.00154942 6.43833e-05
1943 1011 7 14.8499 12.2628 0.272258 -0.00343376 -0.00335787 -0.00230938
1944 1011 6 14.5278 11.6872 1.22716 0.00396809 -0.00412063 -0.00027286
1945 1012 6 41.7606 4.0995 0.861866 -0.0042374 0.00455844 0.00459642
1946 1012 7 42.4072 4.12898 1.82443 0.00849695 0.00156364 -0.00386595
1947 1012 6 42.8622 3.4972 2.68452 0.00440348 0.00177382 -0.00154612
1948 1013 6 30.143 6.20929 8.78277 0.000488307 -0.0025964 -0.00290165
1949 1013 7 30.8906 6.6552 8.0147 -0.0026369 0.000842768 -0.00394675
1950 1013 6 31.5972 7.57645 8.01778 -0.00192797 0.00029364 -0.00232964
1951 1014 6 75.1282 41.946 23.7032 -0.00547804 -0.00048924 0.00384195
1952 1014 7 75.9094 42.6611 24.1759 -0.00272725 -0.00181658 0.001304
1953 1014 6 76.2309 43.6064 24.7664 0.000642404 -0.00430833 0.00345865
1954 1015 6 52.3101 25.6794 18.2058 0.00133372 9.13635e-05 0.00164285
1955 1015 7 51.9058 26.7299 17.9099 0.00495764 0.000715783 -0.00109013
1956 1015 6 52.0617 27.4463 18.811 -0.0041793 -0.000664623 0.00158795
1957 1016 6 63.7145 35.6055 8.72724 -0.00165145 -0.000366051 -0.00183882
1958 1016 7 64.2221 36.6465 8.80739 0.00134056 -0.00211877 0.00197861
1959 1016 6 65.1727 37.1018 8.32201 0.0013497 -0.00229747 0.0018289
1960 1017 6 71.064 27.4806 26.6292 -0.000453222 0.00298005 -0.000436648
1961 1017 7 70.0536 26.911 26.6437 0.00279566 -0.00253613 0.00925788
1962 1017 6 69.121 26.2248 26.5708 0.000713188 0.00106007 0.00204416
1963 1018 6 22.6305 4.24715 1.00387 0.00267172 0.00106977 -0.00142747
1964 1018 7 22.5787 4.38527 2.15435 0.0101077 0.0057982 -0.00166003
1965 1018 6 22.2912 4.79386 3.20302 -0.0010991 -0.00517582 -0.000456682
ITEM: TIMESTEP
225000
ITEM: NUMBER OF ATOMS
57
ITEM: BOX BOUNDS xy xz yz pp pp pp
0.0000000000000000e+00 1.0131084100000001e+02 2.7630201000000000e+01
0.0000000000000000e+00 5.8491914999999999e+01 1.8420141000000001e+01
0.0000000000000000e+00 3.0080027000000001e+01 1.0634897000000000e+01
ITEM: ATOMS id mol type x y z vx vy vz
1909 1000 6 29.3141 15.312 6.73357 -0.00161368 0.00414367 -0.00160445
1910 1000 7 28.1945 15.6085 6.81155 -0.00283462 -0.000874656 -5.44561e-05
1911 1000 6 27.5334 15.9555 7.70029 -0.00236171 -0.000654257 0.00021127
1912 1001 6 57.054 34.3792 18.052 -0.000763678 -0.00463814 -0.000884824
1913 1001 7 56.7616 35.0369 18.9633 -0.00375271 0.00205394 -0.0066735
1914 1001 6 55.9962 35.1378 19.8291 0.00700678 -0.0042465 0.00357331
1915 1002 6 48.0781 40.6124 19.2862 0.00156405 -0.0044957 0.00583721
1916 1002 7 48.9177 40.3698 18.5235 -0.00299829 0.000155814 -0.000664343
1917 1002 6 49.8258 40.3874 17.8022 -0.00169094 0.0019607 0.00102558
1918 1003 6 25.2677 28.3839 1.53703 -0.00767291 -0.00107639 -0.00247001
1919 1003 7 25.0019 29.3204 0.906326 0.00057299 0.00137453 -0.00230647
1920 1003 6 24.3053 29.4747 -0.00974748 0.00139405 0.0078072 -0.00184682
1921 1004 6 84.4939 35.9285 20.9437 0.00860878 0.00296335 -0.0024289
1922 1004 7 29.7492 35.4047 21.842 -0.000757083 -0.00187582 0.000126054
1923 1004 6 30.7652 34.8427 21.8256 0.00210749 0.00304529 0.00896384
1924 1005 6 31.1475 8.64473 15.7503 -0.000365347 -0.00150378 -0.00121968
1925 1005 7 31.1631 9.80292 15.7699 -0.00296517 -0.00150731 0.00105447
1926 1005 6 31.9773 9.77187 16.5964 0.00275948 -0.00128426 -0.00457671
1927 1006 6 75.2874 21.5054 20.8184 -0.00232006 -4.75383e-05 0.00185045
1928 1006 7 75.1304 22.5467 20.331 0.00547731 0.00190656 0.00351254
1929 1006 6 74.7256 23.5602 20.7274 -0.00413052 -0.000617708 0.000154855
1930 1007 6 77.9028 44.9976 4.44193 0.00180312 7.3675e-05 0.00264241
1931 1007 7 77.6501 46.1112 4.6441 -0.0067512 -0.00234911 0.00529368
1932 1007 6 76.6492 46.502 4.2035 -0.00360381 -0.00560275 -0.00474191
1933 1008 6 65.2678 32.6785 27.1248 -0.00124462 0.00140152 -0.00100654
1934 1008 7 64.9664 32.1306 28.1014 0.00167585 0.0026373 0.000588206
1935 1008 6 64.665 31.9975 29.2152 -0.000757546 0.004544 0.000157615
1936 1009 6 14.8835 17.4179 3.36513 0.00285268 0.00135444 0.0041913
1937 1009 7 15.6874 18.2327 3.17641 0.0030675 -5.49006e-05 -0.000978764
1938 1009 6 15.1544 18.8345 2.33856 0.000742058 -0.00185166 -0.000789991
1939 1010 6 34.5567 28.6846 0.0192826 -0.00122898 -0.00276754 0.00104273
1940 1010 7 53.9992 38.8325 29.8475 0.00342662 0.00201566 0.0106933
1941 1010 6 55.0472 38.9586 29.3665 -0.000945479 -0.000208641 0.000583582
1942 1011 6 31.5152 21.8889 26.8659 0.00135575 0.00127267 -0.00391361
1943 1011 7 30.6588 21.9918 26.0905 -0.0024017 0.00128235 0.000237424
1944 1011 6 29.8723 21.7041 25.287 -0.00164918 0.00248108 -0.000928369
1945 1012 6 68.9586 48.0834 4.25255 -0.000505778 -0.00388229 -0.000706822
1946 1012 7 69.9811 48.3268 3.76186 -0.00030728 -0.00187609 0.000701823
1947 1012 6 70.904 47.8835 3.21626 -0.000626874 0.000516586 -0.00178293
1948 1013 6 24.5873 5.86605 8.9591 -0.00074557 -0.00110005 -0.00178888
1949 1013 7 24.3747 6.70406 8.1844 -0.000156638 -0.000633674 -0.00144601
1950 1013 6 24.1991 7.84908 8.26214 -0.00428608 -0.00133238 -0.000478283
1951 1014 6 82.8097 46.3698 26.5484 0.00413175 0.00115888 -0.00183102
1952 1014 7 82.7852 47.1198 25.6642 0.00155166 -0.00136502 -0.00390061
1953 1014 6 82.4165 48.0768 25.122 -0.00241484 -0.00460989 -0.00692981
1954 1015 6 45.2792 27.3832 11.5937 -8.61894e-05 0.00188851 -0.000891696
1955 1015 7 46.2782 27.545 12.1684 -0.00141674 -0.000246769 0.00202231
1956 1015 6 46.2933 28.6347 12.571 0.00176393 0.00114139 -0.00185481
1957 1016 6 58.3383 38.2198 11.0148 -0.00937536 0.00232977 -0.000103631
1958 1016 7 58.4636 38.1682 12.1678 0.000123627 0.000591163 -0.00121366
1959 1016 6 58.2755 38.9348 13.0183 0.000948531 -0.00284749 0.00206811
1960 1017 6 76.4445 28.6395 23.6694 0.00409194 -0.00385015 -0.00129863
1961 1017 7 75.6454 28.919 24.4623 0.00872309 -0.000210873 0.00208561
1962 1017 6 74.8397 29.0371 25.2888 0.00432466 0.00212891 -0.00253603
1963 1018 6 21.8249 0.798979 0.717025 0.00130802 -0.000623008 -0.00352937
1964 1018 7 21.5746 1.71756 1.37952 0.000851343 -0.0042185 0.00128335
1965 1018 6 21.68 2.5872 2.14236 0.00419676 -0.000253923 -0.00369875
ITEM: TIMESTEP
230000
ITEM: NUMBER OF ATOMS
57
ITEM: BOX BOUNDS xy xz yz pp pp pp
0.0000000000000000e+00 1.0131084100000001e+02 2.7630201000000000e+01
0.0000000000000000e+00 5.8491914999999999e+01 1.8420141000000001e+01
0.0000000000000000e+00 3.0080027000000001e+01 1.0634897000000000e+01
ITEM: ATOMS id mol type x y z vx vy vz
1909 1000 6 30.2048 10.8703 11.614 -0.002347 -0.00366653 0.000752464
1910 1000 7 30.8478 11.5308 10.9086 -0.00323872 -0.0031842 0.000391172
1911 1000 6 31.8493 11.3432 10.3525 -0.00414628 -0.00294667 -0.00132323
1912 1001 6 64.8946 33.0421 11.6572 -0.00153378 -0.00649153 -0.00305569
1913 1001 7 65.9108 32.8123 12.1702 0.000730893 0.000763963 -0.00429087
1914 1001 6 67.0171 32.5354 11.9581 0.00052904 0.00077816 -0.0053628
1915 1002 6 50.2696 39.7403 18.5681 0.00482608 -0.000576325 -0.00299677
1916 1002 7 49.3639 40.2418 18.045 -0.000983198 -8.35917e-05 0.0075335
1917 1002 6 48.6033 40.9705 17.5594 -0.000239785 -0.00149584 0.00424982
1918 1003 6 19.9678 27.0639 2.79491 -0.000655802 0.000114069 0.00107989
1919 1003 7 18.9221 26.6081 3.00511 -0.00369128 0.00266391 -0.00849203
1920 1003 6 18.5255 25.517 2.98366 -0.00214416 0.00185631 0.00398563
1921 1004 6 76.2336 31.0309 20.1562 -0.00361907 0.000417397 -0.000849113
1922 1004 7 76.854 31.4898 21.0233 -0.00326526 0.00176306 -0.00181443
1923 1004 6 76.7465 31.2495 22.1542 0.000121509 0.0003215 -0.0017988
1924 1005 6 37.4775 10.8387 11.6411 0.00259371 0.00270879 0.00314447
1925 1005 7 36.9225 10.2434 12.4656 0.00226588 -0.00233986 -0.000721106
1926 1005 6 37.9437 9.89159 12.8903 0.00215501 -0.00326286 -0.00121916
1927 1006 6 70.7423 22.4963 20.0142 -0.0043648 -0.000688217 0.00113392
1928 1006 7 70.2395 22.8844 19.043 -7.008e-05 -0.00322728 -0.00210405
1929 1006 6 69.355 22.5024 18.395 -0.000911375 -0.00174682 -0.00182864
1930 1007 6 45.5312 52.0204 27.5237 0.0014391 -0.00338745 0.000843033
1931 1007 7 45.0306 52.9334 28.0343 0.00548265 0.00203103 -0.00488198
1932 1007 6 45.3637 53.1635 29.1228 0.00426554 0.0055575 -0.00525492
1933 1008 6 61.3683 32.5788 25.9921 0.000304624 -0.00159011 -0.00129533
1934 1008 7 62.0753 32.6691 26.9068 0.00250572 -0.000489371 -0.00310542
1935 1008 6 62.9557 32.4128 27.6197 -0.00298451 -0.00689655 0.00137164
1936 1009 6 36.0816 31.15 28.5103 0.00184488 0.00191017 0.00683369
1937 1009 7 36.5008 32.1542 28.9122 0.00485185 0.0022536 0.00283911
1938 1009 6 36.8687 32.6193 27.9139 0.00460186 -0.00203675 0.000748399
1939 1010 6 31.8205 28.0354 1.1886 0.00498966 -0.00632799 -0.00267013
1940 1010 7 31.247 27.6863 2.13469 0.00632318 -0.00117293 4.03056e-05
1941 1010 6 30.943 26.8005 2.81929 -0.00395332 0.000585001 -0.00224751
1942 1011 6 31.3003 21.4871 26.7229 -0.00528589 0.0027351 -0.00359373
1943 1011 7 31.4644 20.6637 25.9226 -0.00107808 0.00191262 -0.00188442
1944 1011 6 31.2324 19.8719 25.1065 0.00233604 -0.00622006 0.00503471
1945 1012 6 43.0799 3.2955 1.79895 0.000923484 0.00358501 -0.0033339
1946 1012 7 42.3543 3.52127 0.922554 -0.00233873 -0.00443326 -0.00269886
1947 1012 6 41.3741 4.05938 0.61365 0.00103214 -0.000115974 -0.00587543
1948 1013 6 27.0501 6.00725 8.25675 0.00111991 -0.001291 0.000115259
1949 1013 7 26.3019 6.41592 9.04464 0.000993227 -0.00271696 0.000734581
1950 1013 6 25.705 7.40581 9.15313 0.000713518 -0.00305206 0.00225305
1951 1014 6 25.529 31.5896 13.892 -1.79671e-05 -0.00623477 -0.000442062
1952 1014 7 26.3611 32.3948 13.9584 -0.00593527 -0.000442774 0.00347761
1953 1014 6 27.3536 32.8334 14.3686 -0.00305322 -0.000729153 -0.00319004
1954 1015 6 44.9563 32.8684 18.277 0.00132862 -0.00232347 0.00340358
1955 1015 7 45.0866 31.7183 18.155 -0.00306046 -0.00253467 0.000703933
1956 1015 6 45.6702 31.5214 17.17 -0.00414153 -0.00246673 4.98278e-05
1957 1016 6 62.682 28.598 10.738 7.25331e-05 -0.00301242 -0.00111618
1958 1016 7 63.7582 28.2957 10.4247 0.00197167 0.00498942 -0.00231216
1959 1016 6 64.2599 28.1148 9.39411 -0.000923364 -0.0028424 -0.0023467
1960 1017 6 83.4229 32.9141 28.7669 0.00239019 -0.00758298 -0.00432775
1961 1017 7 82.7486 32.1042 28.2825 -0.00449743 -0.00519514 0.00126734
1962 1017 6 82.1943 31.1877 27.8366 -0.00633118 -0.00125009 -0.00456207
1963 1018 6 69.3891 56.6637 28.7448 -0.00248812 0.00539865 0.00142609
1964 1018 7 68.9501 56.8699 29.7985 0.000117236 -0.000789338 0.00372253
1965 1018 6 49.8373 46.1967 0.65012 -0.00238144 0.000367092 0.00191237
ITEM: TIMESTEP
235000
ITEM: NUMBER OF ATOMS
57
ITEM: BOX BOUNDS xy xz yz pp pp pp
0.0000000000000000e+00 1.0131084100000001e+02 2.7630201000000000e+01
0.0000000000000000e+00 5.8491914999999999e+01 1.8420141000000001e+01
0.0000000000000000e+00 3.0080027000000001e+01 1.0634897000000000e+01
ITEM: ATOMS id mol type x y z vx vy vz
1909 1000 6 28.0296 15.9577 16.8584 -6.57169e-05 -0.0040253 0.00436431
1910 1000 7 27.0103 16.1844 16.3514 0.000688258 -0.0047656 0.00251777
1911 1000 6 26.0505 16.7217 16.7218 0.00283964 0.00232716 -0.0021967
1912 1001 6 70.9477 35.3268 3.95846 -0.00195439 0.00277719 0.00132707
1913 1001 7 71.4456 36.1541 3.31332 -0.00106857 0.000795831 -0.000530344
1914 1001 6 71.2454 37.1678 2.786 -0.000736249 -0.00152865 -0.0051248
1915 1002 6 51.0673 40.0251 16.1761 0.00306018 -0.00613322 -0.00209698
1916 1002 7 50.1346 39.9461 16.8611 0.0023176 0.00163658 -0.00221136
1917 1002 6 49.372 39.9647 17.7349 0.00416684 0.00155135 -0.000595654
1918 1003 6 73.7065 31.1628 3.96177 0.00336167 0.00135224 -0.000402524
1919 1003 7 74.4247 30.3008 4.25606 0.00265793 0.0010168 0.000332422
1920 1003 6 74.8499 29.9513 5.27849 0.00379419 0.00265397 0.000419592
1921 1004 6 23.5973 32.8143 11.9383 -0.00415893 -0.00407971 0.00647435
1922 1004 7 24.0437 31.7535 12.0892 0.00231845 -0.00268318 -0.00286609
1923 1004 6 25.1601 31.451 11.9863 0.00462812 0.00568084 -0.00239201
1924 1005 6 38.2442 11.7447 11.0296 0.00647904 -0.00162205 -0.00298701
1925 1005 7 37.661 10.7909 11.3334 0.00143048 0.00196462 -0.00141885
1926 1005 6 37.7001 10.4239 10.2331 -0.00372371 0.00169093 -0.00151035
1927 1006 6 73.4921 21.4684 22.436 -0.00763897 -0.000264108 0.000393042
1928 1006 7 73.563 22.6095 22.6346 0.00265752 -0.000866575 0.000176277
1929 1006 6 73.704 23.5322 21.944 0.00646351 -0.00191118 -0.000442746
1930 1007 6 56.2567 3.04795 5.73833 1.0306e-05 0.005213 0.000575432
1931 1007 7 55.4281 3.12941 6.54557 -0.00339863 0.00822855 -0.0032278
1932 1007 6 55.1914 4.19687 6.93697 0.0027271 0.00844196 -0.000105089
1933 1008 6 64.5921 31.6349 26.0891 0.00143751 0.000884861 0.00156682
1934 1008 7 64.1624 32.3493 26.8953 -0.00136901 0.00290067 -0.00171564
1935 1008 6 64.0738 33.2973 27.5604 0.002852 -0.000286094 0.00338812
1936 1009 6 21.2513 26.2878 2.63992 -0.00127831 -0.00127114 0.0073985
1937 1009 7 20.1112 26.2212 2.84389 -0.0034022 0.00282945 -0.00313555
1938 1009 6 19.9504 27.2492 3.35927 -0.0039692 0.00227644 -0.00220934
1939 1010 6 37.4 28.9505 3.55199 -0.00143909 0.00690821 -0.0014194
1940 1010 7 36.8294 29.06 4.55613 0.00540921 0.00364366 0.00282803
1941 1010 6 36.2916 29.7696 5.29971 0.00524352 0.000265823 0.00593149
1942 1011 6 34.172 22.8424 27.4553 -0.00174847 0.00423415 -0.0018503
1943 1011 7 33.8638 23.0627 28.5516 0.00118937 -0.0023054 0.000289777
1944 1011 6 33.5627 22.8855 29.6583 -0.00472638 -0.00913043 -0.00241269
1945 1012 6 43.0297 1.56425 2.75165 0.00466184 0.00489736 -0.000234044
1946 1012 7 70.5669 49.0095 3.83207 -0.00152745 0.00162654 -0.00201289
1947 1012 6 70.6189 48.0595 4.49581 0.00301935 0.000923785 -0.00337508
1948 1013 6 28.4604 5.28673 8.9078 -0.00183907 0.00077707 0.000262374
1949 1013 7 29.3699 5.47415 9.60435 -0.00128307 0.000320185 -0.000340745
1950 1013 6 30.4967 5.19935 9.55158 -0.00087753 0.00240869 -0.00255762
1951 1014 6 78.6244 37.1188 15.4626 7.69613e-05 -0.00672376 0.00281281
1952 1014 7 78.357 37.9208 14.6687 0.000448974 -0.00845647 0.000937044
1953 1014 6 78.6166 38.7421 13.8917 0.000478197 -0.00534566 0.00423495
1954 1015 6 45.8922 30.5658 13.1154 -0.00624322 -0.00313947 0.00155329
1955 1015 7 46.3038 30.2105 14.1444 -0.00333462 -5.40831e-05 0.00145502
1956 1015 6 45.8412 30.8817 14.9721 -0.00511319 -0.000987804 0.00121816
1957 1016 6 63.8133 31.2409 6.27886 0.00106719 0.0026822 -0.00686918
1958 1016 7 63.729 30.4225 5.45976 0.000987957 -0.000881167 -0.00330101
1959 1016 6 63.4124 29.3065 5.48713 0.00550129 -0.00202254 0.00238002
1960 1017 6 62.3966 15.359 6.34393 -0.000541786 0.00299223 -0.00651217
1961 1017 7 63.4948 15.0466 6.5485 -0.000844035 0.00207843 -0.00628482
1962 1017 6 64.607 14.7191 6.58925 -0.00341602 -0.00656368 -0.00553738
1963 1018 6 18.4384 5.79039 3.54314 0.00364756 -0.0015831 -0.00574307
1964 1018 7 17.898 6.613 2.92942 0.00148823 0.00183896 0.000745012
1965 1018 6 17.6625 7.39638 2.10467 -0.00474164 0.00136697 0.0020752
ITEM: TIMESTEP
240000
ITEM: NUMBER OF ATOMS
57
ITEM: BOX BOUNDS xy xz yz pp pp pp
0.0000000000000000e+00 1.0131084100000001e+02 2.7630201000000000e+01
0.0000000000000000e+00 5.8491914999999999e+01 1.8420141000000001e+01
0.0000000000000000e+00 3.0080027000000001e+01 1.0634897000000000e+01
ITEM: ATOMS id mol type x y z vx vy vz
1909 1000 6 29.4749 10.8154 12.5104 -0.00262717 -0.000210441 -1.31991e-05
1910 1000 7 30.2511 10.4614 11.7234 -0.000838831 0.00188059 0.000810137
1911 1000 6 30.1476 10.0957 10.6267 0.000652881 -0.00449596 0.00279566
1912 1001 6 68.9953 33.4371 2.3374 0.00315577 -0.00192992 0.00370167
1913 1001 7 68.772 34.4487 2.86215 -0.000394794 -0.00146713 0.00129892
1914 1001 6 68.862 35.5987 2.73993 -0.00138585 -0.00152504 2.40841e-05
1915 1002 6 48.8515 36.7996 20.8815 0.00282691 -0.000285596 -0.00402266
1916 1002 7 48.8769 37.9419 20.6814 -0.000849051 -0.000168419 -0.00382109
1917 1002 6 48.6368 39.0491 20.433 -0.00523988 -0.000174121 0.000398882
1918 1003 6 72.5142 32.9907 5.812 0.000292101 0.00220579 0.00412692
1919 1003 7 73.3785 33.7609 5.88456 -0.00141361 0.00439331 0.00122483
1920 1003 6 74.0733 34.0771 6.75952 0.00513146 0.00137323 -0.00288133
1921 1004 6 80.1727 38.5661 9.33294 0.00289313 0.00464808 0.00561029
1922 1004 7 79.4185 37.7057 9.52836 0.00595432 0.000378775 -0.00137339
1923 1004 6 79.3736 37.0243 10.4675 0.00252469 -0.00133605 -0.00278124
1924 1005 6 37.5574 16.3064 18.0077 0.00305111 0.000326356 0.00443318
1925 1005 7 38.6158 15.8833 17.8007 0.00229578 -0.00249866 0.00634492
1926 1005 6 38.8568 15.9481 18.9341 0.0016984 0.00028107 0.00631296
1927 1006 6 22.7816 21.4095 19.1567 -0.00387753 -0.00449307 -0.00126458
1928 1006 7 22.0827 21.8294 19.9825 -0.00117544 -0.00152122 -0.000488649
1929 1006 6 21.4469 22.7966 20.0738 0.00320168 0.00128117 0.000304787
1930 1007 6 79.7139 49.8277 12.3316 0.00278062 0.0013124 0.00408069
1931 1007 7 79.6557 50.9506 12.0479 0.000665141 -0.00016626 -0.00133849
1932 1007 6 78.6332 51.3303 11.649 -0.00120195 -0.00311463 0.000640885
1933 1008 6 44.7025 21.7905 0.142793 -0.00464278 0.00450687 -0.00231653
1934 1008 7 63.7817 32.9383 29.4182 -0.00128565 0.00437221 0.000347735
1935 1008 6 64.0456 33.5983 28.4996 0.00212582 0.00145168 -0.000770866
1936 1009 6 20.5292 31.8611 5.58565 -0.00866718 -7.74642e-05 -0.000455363
1937 1009 7 75.2906 31.7536 6.62734 -0.0047909 -0.00158855 0.00124586
1938 1009 6 74.6521 30.8031 6.43448 -0.00703287 -0.000160762 0.00163103
1939 1010 6 22.3276 18.169 2.68079 -0.000712141 0.0105433 -0.0014423
1940 1010 7 23.3398 17.6257 2.84259 -0.0031716 0.00452532 -0.00626401
1941 1010 6 24.2788 17.4919 3.51041 -0.00133592 -0.00190229 -0.010133
1942 1011 6 33.8958 23.1228 27.3556 -0.00579144 -0.00160733 -0.00247544
1943 1011 7 33.246 23.2247 28.311 -0.00338696 0.00483678 -0.00152729
1944 1011 6 32.3152 23.3711 28.9885 -0.0030828 0.000533032 -0.000178987
1945 1012 6 70.7129 48.5287 3.07431 -0.00130836 -0.00306222 0.00342958
1946 1012 7 71.2822 48.3391 4.06701 0.00415518 -0.000173934 0.000848184
1947 1012 6 71.6681 47.5292 4.80259 -0.00277295 0.00255471 0.00748745
1948 1013 6 27.962 5.38885 7.80069 -0.0011711 -0.00107143 -0.00287229
1949 1013 7 29.0679 5.56474 8.10651 -0.00206622 0.00315268 -0.00206469
1950 1013 6 29.6943 5.31026 9.05034 -0.000682486 0.00169677 -0.00337556
1951 1014 6 77.7977 35.1462 13.7943 0.00781067 -0.00466828 -1.76767e-05
1952 1014 7 77.9752 34.8163 12.6967 0.00217864 -0.00478933 -0.000892014
1953 1014 6 77.6859 34.7312 11.5765 -0.00275928 -0.00339722 0.00027737
1954 1015 6 39.5957 31.2612 20.4367 -0.00135728 -0.00282086 0.000282148
1955 1015 7 40.6967 31.2989 20.812 -0.00165159 0.000828989 0.00077925
1956 1015 6 41.2686 30.3988 20.3511 0.00117057 0.00189162 0.00220593
1957 1016 6 65.8339 37.6746 20.4941 0.00713619 0.00619326 -0.00390858
1958 1016 7 65.5221 37.7705 21.6082 0.00728124 0.00442461 -0.00371575
1959 1016 6 64.5646 38.1681 22.1296 0.00518265 -0.00138836 -0.00313733
1960 1017 6 60.4045 16.1273 4.06706 -0.00299999 0.00152322 0.00173518
1961 1017 7 60.4629 17.1069 3.44873 -0.00522022 0.00187658 0.00208566
1962 1017 6 60.6083 18.1475 2.95673 -0.00368187 0.000903855 0.00048313
1963 1018 6 23.7657 4.00577 2.69264 0.00174437 0.00084509 0.00800489
1964 1018 7 23.7581 2.86093 2.50651 -0.00497463 0.00171316 0.00294008
1965 1018 6 23.8041 1.71474 2.68941 -0.00525273 0.000743445 -0.00306711
ITEM: TIMESTEP
245000
ITEM: NUMBER OF ATOMS
57
ITEM: BOX BOUNDS xy xz yz pp pp pp
0.0000000000000000e+00 1.0131084100000001e+02 2.7630201000000000e+01
0.0000000000000000e+00 5.8491914999999999e+01 1.8420141000000001e+01
0.0000000000000000e+00 3.0080027000000001e+01 1.0634897000000000e+01
ITEM: ATOMS id mol type x y z vx vy vz
1909 1000 6 29.641 5.0274 9.73528 0.000864804 -0.00114963 -0.00194805
1910 1000 7 30.1682 5.91947 9.21217 3.47389e-05 0.00237607 0.00322774
1911 1000 6 29.7676 6.81615 8.59351 -9.36067e-05 0.00102503 0.00135265
1912 1001 6 67.8734 35.9914 2.83212 0.00205962 -0.00161758 -0.00341396
1913 1001 7 68.7472 36.3005 3.53164 0.000884048 -0.00398975 -0.000897166
1914 1001 6 69.7938 36.8007 3.54594 -0.000318998 -0.00158239 0.00294547
1915 1002 6 49.1682 41.84 14.7787 0.00243392 0.00458795 -0.00223577
1916 1002 7 49.7277 41.656 15.778 -0.00459071 0.00151985 0.00113254
1917 1002 6 50.1492 41.6923 16.858 -0.00599352 0.0030241 0.00162939
1918 1003 6 77.003 36.2217 3.95486 -0.00341299 -0.00494156 0.00368962
1919 1003 7 76.0764 36.3488 3.26881 -0.000798509 0.00299057 0.0016273
1920 1003 6 75.8301 35.9529 2.20538 -0.00125385 0.006237 0.000524211
1921 1004 6 36.6067 44.2871 10.3177 0.00114268 0.00194793 -0.00452742
1922 1004 7 36.48 44.013 11.4385 0.00256585 0.00153925 -0.00446649
1923 1004 6 36.4634 44.7517 12.3342 0.000395357 0.00150506 -0.00447847
1924 1005 6 38.7444 15.9498 19.1074 -0.00247898 0.00548748 -0.00726657
1925 1005 7 39.2922 15.1107 18.5263 -0.000228827 -0.00307095 0.00721378
1926 1005 6 40.2918 15.4269 19.0241 -0.00137251 0.00711939 0.00303633
1927 1006 6 20.3255 20.7512 19.2413 -0.00402615 -0.00432032 -0.00121341
1928 1006 7 20.333 20.5074 20.3758 0.000154425 -0.00298917 -0.000955066
1929 1006 6 19.9784 19.5932 20.9978 -0.00318697 0.000329548 0.00201802
1930 1007 6 79.9653 49.5263 12.9941 -0.00202559 0.00278422 -0.0015155
1931 1007 7 79.9068 49.1674 14.0952 0.000549059 0.00260226 -0.00143812
1932 1007 6 79.9312 49.9946 14.9101 0.00468765 0.00232942 -0.00128487
1933 1008 6 67.4853 32.2603 18.3445 -0.00400243 -0.00202898 0.000799813
1934 1008 7 66.3335 32.1277 18.3692 -0.00405849 -0.00240368 -0.00381778
1935 1008 6 65.2266 32.3545 18.6381 -0.00489265 -0.00493593 -0.00511494
1936 1009 6 73.2538 38.5984 6.48201 0.00131636 0.00181372 -0.00129814
1937 1009 7 73.5138 37.4699 6.55039 -0.00766406 -0.0002114 -0.000569991
1938 1009 6 73.7439 37.2602 5.43178 -0.00163275 -0.00091509 0.00080264
1939 1010 6 27.9162 20.0522 3.16823 -0.000814955 0.00368455 -0.00524058
1940 1010 7 28.6926 20.8626 3.46197 0.00293106 0.00141982 -0.00889267
1941 1010 6 28.8809 21.9599 3.78769 0.00663212 -0.00262495 0.00259356
1942 1011 6 33.865 23.4236 28.7976 -0.0010333 -0.00337149 0.00147789
1943 1011 7 34.0681 22.9582 29.8404 -0.000778551 0.000313042 0.00307248
1944 1011 6 15.9395 12.238 0.880506 0.00256131 0.00372809 0.00246344
1945 1012 6 42.8357 3.17787 2.88938 -0.0026393 -0.00143677 0.000628138
1946 1012 7 41.7647 3.4412 2.53015 -0.00207788 0.00249383 0.00183564
1947 1012 6 41.1242 3.80267 1.6329 -0.00212582 0.00235177 0.00181263
1948 1013 6 26.5044 7.03885 8.69209 0.00221516 -0.00344351 -0.00188811
1949 1013 7 25.6008 7.07957 7.96449 0.000956327 0.00495845 0.000145534
1950 1013 6 24.4796 7.35608 8.08506 2.2789e-05 -0.0015581 0.00640987
1951 1014 6 25.2914 25.2583 13.7231 -0.00839709 0.00718357 0.00464851
1952 1014 7 26.1703 26.0143 13.6912 -0.00314375 0.000859024 -0.000500274
1953 1014 6 26.9673 26.6604 13.1498 -0.00434374 -0.00177369 -0.00540941
1954 1015 6 47.2365 31.8335 17.5841 0.00389667 -0.00702563 0.00124576
1955 1015 7 48.0005 31.7661 18.4593 0.0039055 0.00202377 0.00193451
1956 1015 6 48.9769 32.3034 18.1314 0.00137948 0.00485463 -0.000948815
1957 1016 6 69.793 39.3285 17.9671 0.00270451 -0.00628579 -0.00247593
1958 1016 7 69.3312 39.3337 16.902 0.0032115 -0.00219657 -0.00267586
1959 1016 6 69.5263 38.6951 15.9529 0.00261853 0.000462068 -0.00458642
1960 1017 6 63.813 18.1831 5.52267 -0.00172118 -0.00192148 0.00136559
1961 1017 7 62.806 17.9594 4.99232 -0.00167663 -0.00249535 0.00152305
1962 1017 6 61.8261 17.5779 4.50219 -0.000822968 -0.00325456 0.000407339
1963 1018 6 69.6846 57.8625 29.8365 -0.00150802 0.00618337 -0.000441489
1964 1018 7 51.4016 46.8126 0.830833 -0.00219375 -0.00145906 -0.00330643
1965 1018 6 51.8975 46.4421 1.81374 -0.00298811 -0.00175959 -0.0030189
ITEM: TIMESTEP
250000
ITEM: NUMBER OF ATOMS
57
ITEM: BOX BOUNDS xy xz yz pp pp pp
0.0000000000000000e+00 1.0131084100000001e+02 2.7630201000000000e+01
0.0000000000000000e+00 5.8491914999999999e+01 1.8420141000000001e+01
0.0000000000000000e+00 3.0080027000000001e+01 1.0634897000000000e+01
ITEM: ATOMS id mol type x y z vx vy vz
1909 1000 6 30.7392 6.77121 8.88259 0.00363868 -0.000698862 -0.00159129
1910 1000 7 30.7001 7.13724 7.78174 0.00250275 0.00197377 -0.000662244
1911 1000 6 31.4466 7.73708 7.12589 0.00377897 -0.000372317 -0.00135525
1912 1001 6 74.9321 38.2877 1.2093 -0.00157096 -0.00401123 -0.00180746
1913 1001 7 75.8768 37.9191 0.643449 0.00269048 -4.60566e-05 0.00272419
1914 1001 6 76.5822 37.0083 0.507212 0.00122057 -0.000542315 -0.00156827
1915 1002 6 47.7377 42.6829 13.361 -0.00280788 0.00160329 -0.00394391
1916 1002 7 48.8407 42.4312 13.6166 -0.0046782 -0.000253414 0.00229796
1917 1002 6 49.9549 42.1089 13.6095 -0.00512681 -0.00194233 0.00855536
1918 1003 6 74.9458 36.4257 3.84097 -7.75478e-05 -0.00255871 0.000558953
1919 1003 7 74.1234 37.2044 4.091 0.00125198 -0.000279514 -0.00216598
1920 1003 6 73.0908 37.4331 3.61165 0.00346372 0.00256662 -0.00557255
1921 1004 6 38.0833 48.8199 13.5279 0.00123204 0.00164703 0.00482793
1922 1004 7 38.6445 48.7457 12.5145 -0.0014389 -0.0019398 0.00361146
1923 1004 6 38.4937 49.4291 11.5879 0.000912328 -0.000983143 0.00393436
1924 1005 6 34.0548 23.8541 14.7301 -0.00149526 0.000126246 0.00411538
1925 1005 7 34.0466 22.857 15.3199 -0.00402598 0.00106848 0.00567338
1926 1005 6 34.1646 22.2737 14.3235 -0.000574382 -0.000561227 0.00703601
1927 1006 6 73.2874 24.4326 20.0773 0.00350388 0.00209239 -0.00075422
1928 1006 7 72.2299 24.1126 19.7222 0.00304549 0.00250229 0.000241675
1929 1006 6 71.8089 23.7362 18.7077 0.00293291 -0.00211495 0.0020015
1930 1007 6 78.0616 43.9565 9.61202 -0.00263638 -0.00100927 -0.00295356
1931 1007 7 78.3618 44.9801 9.15708 0.00111742 -0.00208449 -0.00289585
1932 1007 6 77.6469 45.4177 8.35316 0.00245201 0.000827637 -0.00249751
1933 1008 6 65.1714 32.5341 16.8567 0.00473985 -0.0051114 -0.00113482
1934 1008 7 64.6392 31.682 16.2775 0.000504678 -0.00348959 0.000370268
1935 1008 6 64.5001 30.6503 15.7625 -0.002806 -0.00149243 -0.00273664
1936 1009 6 67.9588 35.1454 2.94404 -0.00546845 0.00305998 0.00624469
1937 1009 7 68.875 35.8087 2.68637 -0.00126825 -0.00576548 -0.00153755
1938 1009 6 69.5639 35.5361 3.58043 -0.00109562 -0.00325787 -0.000906032
1939 1010 6 22.8807 13.6113 7.73625 0.00081513 -0.0037488 0.00947858
1940 1010 7 21.9968 13.8063 8.46191 -0.00282794 0.00472224 0.00276459
1941 1010 6 21.5876 14.4196 9.35746 -4.31812e-05 0.00185909 0.00599793
1942 1011 6 33.3957 23.3367 28.9276 -0.000819307 0.00143157 0.000360243
1943 1011 7 33.4175 22.8851 29.9957 -0.00487719 0.00123454 0.000359611
1944 1011 6 15.2076 12.1421 1.0519 0.00245231 -0.00482747 -0.00157327
1945 1012 6 69.8001 48.2336 4.1487 -0.00227011 0.00201631 -0.00478103
1946 1012 7 70.9485 48.0715 4.12951 -0.0020596 0.0032321 -0.00245266
1947 1012 6 71.8699 47.7194 4.74027 -0.00284382 0.00476058 -0.000388461
1948 1013 6 27.143 3.64753 8.28579 0.00375583 0.000716315 0.0030706
1949 1013 7 28.0954 2.99549 8.16186 0.00180071 -0.00194407 0.00204241
1950 1013 6 56.0975 49.8666 8.64929 -0.00114957 -0.00382082 0.000497195
1951 1014 6 25.007 21.2706 19.3688 -0.00690008 -0.00608799 -0.00339106
1952 1014 7 25.9373 20.6009 19.5449 0.000845063 0.00308498 -0.00942206
1953 1014 6 26.8702 20.252 20.1397 -0.00335215 -0.000989151 -0.00522891
1954 1015 6 45.0939 33.2262 19.3261 -2.77907e-05 0.000282162 0.00606018
1955 1015 7 45.1379 34.3819 19.4555 0.0015941 0.00132082 -0.00376617
1956 1015 6 46.1263 34.6487 20.0046 -0.00621115 0.00318716 0.00937828
1957 1016 6 69.3239 34.1203 14.6701 -0.000731696 -0.00833673 0.00738731
1958 1016 7 68.1968 33.909 14.4892 -0.000752204 -0.00285531 0.00111433
1959 1016 6 67.5899 32.9312 14.3407 -0.00380025 0.000445122 -0.00815627
1960 1017 6 64.9015 15.0868 6.01306 0.00487918 -0.000830225 -0.00369142
1961 1017 7 65.3515 14.102 5.59703 0.00462286 -0.00160858 -0.00212617
1962 1017 6 10.6158 13.2124 5.06867 0.00320078 -0.00273907 -0.00163505
1963 1018 6 66.4881 53.9534 27.7606 -0.00611545 -0.00284433 0.00523625
1964 1018 7 67.1937 54.3636 28.5847 0.00234021 -0.00232757 -0.00226044
1965 1018 6 67.771 54.4723 29.5868 0.00267425 0.00546009 -0.00329755
ITEM: TIMESTEP
255000
ITEM: NUMBER OF ATOMS
57
ITEM: BOX BOUNDS xy xz yz pp pp pp
0.0000000000000000e+00 1.0131084100000001e+02 2.7630201000000000e+01
0.0000000000000000e+00 5.8491914999999999e+01 1.8420141000000001e+01
0.0000000000000000e+00 3.0080027000000001e+01 1.0634897000000000e+01
ITEM: ATOMS id mol type x y z vx vy vz
1909 1000 6 29.6956 5.88348 8.50258 -0.00437505 0.00385852 0.00314626
1910 1000 7 30.1934 6.90256 8.25545 -0.00151022 0.000329849 -0.0056344
1911 1000 6 31.3019 7.23245 8.15697 -0.000357427 -0.000942209 0.00308065
1912 1001 6 23.5174 35.867 1.04156 -0.000798035 -0.000879297 -0.000705993
1913 1001 7 42.2939 46.1407 30.0771 0.00393671 -0.0065901 0.00288438
1914 1001 6 43.1784 46.1913 29.3282 0.00177657 0.000600476 0.000819021
1915 1002 6 40.841 38.4579 13.362 0.00572782 -0.000326716 0.000435779
1916 1002 7 40.4778 39.4733 13.7891 0.00112937 0.000330044 -0.00503699
1917 1002 6 39.8886 40.4304 14.076 -0.00589405 -0.00416924 -0.00445246
1918 1003 6 39.8557 47.6956 26.2988 -0.00498503 0.00232249 0.0019945
1919 1003 7 40.2047 47.4588 27.3793 0.00511461 6.95484e-05 -0.00176106
1920 1003 6 40.0008 46.5623 28.0886 -0.00175852 0.0064811 0.0043663
1921 1004 6 15.9129 5.45888 10.9426 -0.000715351 0.00332869 -0.00893148
1922 1004 7 14.9975 4.81142 11.2429 2.12858e-05 0.00353987 -0.00623067
1923 1004 6 14.6802 4.51875 12.3209 0.00524888 0.000522577 -0.00551136
1924 1005 6 38.3896 16.0333 16.1378 0.000771361 -0.00499408 -0.00549571
1925 1005 7 38.4938 15.3026 17.0307 0.0071745 -0.00376703 -0.00523919
1926 1005 6 37.5395 14.7445 16.6775 0.00261638 -0.00206933 0.0043939
1927 1006 6 68.6039 23.8693 18.1494 -0.00175104 -0.000428466 0.000908646
1928 1006 7 68.687 22.8193 17.6622 -0.00835479 -0.00042905 -0.000216397
1929 1006 6 68.3941 22.3976 16.6208 -0.00675375 0.00362734 -0.00230954
1930 1007 6 81.94 48.7415 5.59751 0.00432435 -0.00184852 -0.00259415
1931 1007 7 82.1417 48.9901 6.71209 -0.000828228 -0.00284703 -0.00143898
1932 1007 6 83.0789 48.498 7.18971 -0.00134188 -0.000866929 0.0016091
1933 1008 6 67.3431 27.3222 5.03931 0.00281356 -0.00217401 -0.00226254
1934 1008 7 66.8852 28.1254 5.73925 0.0013783 -0.00241589 -0.00292395
1935 1008 6 66.3928 28.5734 6.69102 0.00277764 -0.00206732 -0.00236404
1936 1009 6 69.0884 39.1479 5.3852 -0.00218479 0.00686625 -0.00513353
1937 1009 7 69.2896 38.2487 4.68045 0.00234078 0.00245288 0.00178959
1938 1009 6 70.4342 38.3758 4.53268 0.00300291 0.00252879 0.00698407
1939 1010 6 50.8051 20.2027 19.6058 -0.00126155 0.00176928 -0.00382448
1940 1010 7 50.22 20.0822 18.6114 0.000807363 0.00579785 -0.00552975
1941 1010 6 50.2627 20.0505 17.4526 0.00493313 -0.000943378 -0.00519333
1942 1011 6 33.8366 23.2429 29.099 0.000979636 -0.00394135 -0.000552105
1943 1011 7 15.4142 12.4714 0.170726 0.0049649 -0.0049214 -0.000660267
1944 1011 6 15.17 12.0365 1.21867 0.00254429 -0.00110115 0.000361147
1945 1012 6 43.3462 3.76544 2.29938 0.00223507 0.00371475 -0.00210656
1946 1012 7 43.3345 3.49418 1.17167 0.00145897 -0.0013493 -0.000880327
1947 1012 6 42.7577 2.93721 0.333176 -0.000419048 -0.00303465 0.00153097
1948 1013 6 26.6663 5.78769 8.26539 0.00345604 -0.000125278 0.00168066
1949 1013 7 26.0872 5.78732 9.27151 -0.00273031 0.00113041 -0.00187953
1950 1013 6 25.902 6.58333 10.0961 0.00112866 -0.00108535 0.00112624
1951 1014 6 73.1964 22.652 21.8168 -0.00242508 0.00688253 0.000969629
1952 1014 7 73.0926 23.8019 21.9262 -0.00689735 0.00689115 -0.00336647
1953 1014 6 73.2875 24.8992 21.6041 0.00442693 0.00682023 0.00324328
1954 1015 6 45.5041 33.9765 19.7767 0.000655979 -0.00386115 -0.000341657
1955 1015 7 46.6029 33.993 19.3936 0.00232785 -0.00229012 0.00452189
1956 1015 6 47.2778 34.407 20.2437 -0.00295726 0.0051022 0.00511712
1957 1016 6 67.5573 32.282 18.8362 0.000875525 0.000994626 0.00626267
1958 1016 7 68.5811 31.7348 18.8247 -0.000404227 -0.00116554 -0.00492735
1959 1016 6 69.6255 32.0207 18.4076 0.000986942 0.00621628 0.00361708
1960 1017 6 13.5725 14.3233 5.69587 0.00546901 0.00285212 0.00243146
1961 1017 7 13.1761 15.3852 5.44967 0.00253319 0.00189264 0.00302013
1962 1017 6 12.6617 16.3705 5.11702 0.00397579 0.000851999 -0.00229278
1963 1018 6 46.6581 43.8039 2.01448 -0.00193675 -0.00785582 0.00198506
1964 1018 7 47.2431 42.9627 1.47084 0.00161613 -0.00212438 -0.00306075
1965 1018 6 48.1167 42.3208 1.05375 0.00435201 0.00101875 -0.00216791
ITEM: TIMESTEP
260000
ITEM: NUMBER OF ATOMS
57
ITEM: BOX BOUNDS xy xz yz pp pp pp
0.0000000000000000e+00 1.0131084100000001e+02 2.7630201000000000e+01
0.0000000000000000e+00 5.8491914999999999e+01 1.8420141000000001e+01
0.0000000000000000e+00 3.0080027000000001e+01 1.0634897000000000e+01
ITEM: ATOMS id mol type x y z vx vy vz
1909 1000 6 29.1185 6.19476 8.28795 -0.00310334 0.00138419 0.00168134
1910 1000 7 30.0411 6.54291 7.67565 -0.00288551 0.00351536 0.00322134
1911 1000 6 30.8941 7.29754 7.90001 -0.00457489 0.00490746 0.00496152
1912 1001 6 75.0998 38.1361 0.759158 -0.0036433 -7.33254e-05 -0.000968762
1913 1001 7 75.4944 37.2449 1.39057 0.000602096 -0.000955355 -0.00486651
1914 1001 6 76.2437 36.9597 2.22891 -0.00383941 0.000404083 -0.000434019
1915 1002 6 53.1154 40.137 11.1155 -0.00201572 0.00624195 -0.00436931
1916 1002 7 52.6354 40.8198 11.921 0.00230884 0.00376632 0.000305982
1917 1002 6 52.3937 41.6335 12.7115 0.00496177 0.00387681 0.0010035
1918 1003 6 90.735 48.2422 28.0964 -0.000814929 -0.000978219 0.00152845
1919 1003 7 90.5015 47.8343 29.1568 0.000128075 -0.00106986 0.00170086
1920 1003 6 72.4495 37.5103 0.133216 -0.00197129 0.00138395 0.00171018
1921 1004 6 72.9427 24.5795 10.4206 -0.00175825 -0.00559985 0.00989428
1922 1004 7 73.1489 24.0201 9.42467 0.0120277 0.00492412 0.00683759
1923 1004 6 18.038 22.8763 9.29123 0.000647389 0.00482463 -0.00506872
1924 1005 6 39.7636 13.1568 9.40244 0.00615607 0.000365118 5.71567e-05
1925 1005 7 40.6538 13.7419 8.94724 0.00954879 -0.00109923 0.00480947
1926 1005 6 41.0534 12.7579 8.47941 0.00403075 0.000322085 -0.00289416
1927 1006 6 68.6119 26.2349 10.8105 0.00571147 0.00535586 0.0023849
1928 1006 7 69.2606 25.4274 11.3337 6.48487e-06 0.000972388 0.00269277
1929 1006 6 69.0254 24.5909 12.1039 -0.00588997 0.00297214 0.00306371
1930 1007 6 30.6556 45.8981 6.19035 0.000443451 0.00328876 -0.000199593
1931 1007 7 30.1539 46.6115 6.95463 -0.00170831 -0.0019273 0.00325635
1932 1007 6 84.5074 47.2261 6.56934 0.000991258 0.00262485 0.00416287
1933 1008 6 19.1462 25.3278 2.63206 -0.00217925 -0.00185531 -0.00505523
1934 1008 7 19.5695 26.2705 3.15841 0.00142259 -0.00538414 -0.00163256
1935 1008 6 19.6199 27.1584 3.90545 0.00254174 -0.00550729 -0.00156158
1936 1009 6 73.3877 38.0862 3.66309 -0.000568394 0.00226785 -0.00137497
1937 1009 7 72.4554 37.6889 3.09851 0.000216036 0.00184429 -0.00237235
1938 1009 6 72.5497 36.5589 3.34816 0.00226428 0.00144841 -0.00493841
1939 1010 6 51.3033 16.2923 11.9903 0.00248125 -0.0003089 0.00192159
1940 1010 7 51.8308 17.1489 11.4125 0.00261482 -0.000836843 0.00126084
1941 1010 6 52.0755 17.6245 10.3832 -0.000476573 0.000425667 0.00110937
1942 1011 6 33.8272 22.9779 27.5492 0.000290068 -0.000102442 0.001338
1943 1011 7 33.6724 24.125 27.475 0.00259606 0.000314685 0.00297459
1944 1011 6 33.3174 25.1559 27.0773 0.00370616 0.00150654 0.00507332
1945 1012 6 43.5413 3.70234 2.33122 -0.000451454 -0.000316033 0.000875585
1946 1012 7 43.0581 3.1239 1.44956 -0.00216655 0.00242533 1.71299e-05
1947 1012 6 43.056 2.9708 0.299564 -0.00303906 0.0045754 -0.000267556
1948 1013 6 24.8706 6.68671 8.81182 -0.00469832 -0.00448734 0.00238278
1949 1013 7 23.9932 6.88345 8.07761 3.79341e-05 -0.00146674 -0.00246776
1950 1013 6 23.4123 7.83407 7.75088 -0.000655046 -0.000740727 0.000876772
1951 1014 6 68.814 22.3038 19.2995 -0.00142981 -0.00723381 0.000332902
1952 1014 7 69.9217 22.6037 19.467 -0.00176094 -0.00485998 -0.00172622
1953 1014 6 70.8878 23.1961 19.2191 -0.00340221 -0.00301392 -0.00371047
1954 1015 6 40.3835 35.0028 21.0782 -0.00295126 0.00431728 0.000788912
1955 1015 7 41.2249 34.6762 21.8129 -0.00334303 -9.56173e-05 -0.000724398
1956 1015 6 41.7975 33.7848 21.3363 -0.00627208 -0.000459864 -0.00356234
1957 1016 6 68.714 32.0264 18.0764 -0.000704691 -0.00160424 -0.00258812
1958 1016 7 67.7433 32.2406 18.676 0.00341854 0.00111652 0.00311563
1959 1016 6 67.0705 31.5805 19.353 -0.00120336 -0.000165753 -0.00272768
1960 1017 6 14.0092 18.4014 3.30274 0.00300591 0.00296156 0.000802608
1961 1017 7 14.3715 17.3389 3.59468 -0.00173713 0.000922015 -0.000733831
1962 1017 6 14.755 16.3378 4.0384 -0.00699203 -0.00164549 -0.00198533
1963 1018 6 49.0378 46.8075 6.73579 0.00196042 -0.0025899 -0.00148289
1964 1018 7 48.9973 46.1318 5.79389 0.00387902 -0.00551176 0.00053064
1965 1018 6 48.5948 45.4532 4.94139 0.00459908 -0.00261138 -0.00211819
ITEM: TIMESTEP
265000
ITEM: NUMBER OF ATOMS
57
ITEM: BOX BOUNDS xy xz yz pp pp pp
0.0000000000000000e+00 1.0131084100000001e+02 2.7630201000000000e+01
0.0000000000000000e+00 5.8491914999999999e+01 1.8420141000000001e+01
0.0000000000000000e+00 3.0080027000000001e+01 1.0634897000000000e+01
ITEM: ATOMS id mol type x y z vx vy vz
1909 1000 6 28.0244 4.52906 7.83012 -0.00599217 -0.00110298 -0.00357314
1910 1000 7 27.847 3.50355 8.3442 0.00011988 -0.00074397 -0.000748458
1911 1000 6 55.7104 50.2697 8.02323 0.00559812 -0.00031066 0.00175882
1912 1001 6 74.4152 38.895 1.90295 -0.00119565 -0.00285913 0.001997
1913 1001 7 74.9557 37.9539 1.48967 0.00128388 -0.00220667 0.00375371
1914 1001 6 75.6318 37.0617 1.79406 0.00598537 0.00173589 0.00486589
1915 1002 6 59.2782 40.6799 15.3772 5.09473e-05 0.00621212 0.00541607
1916 1002 7 59.137 40.7362 14.2273 -0.0010511 0.00083199 0.00528784
1917 1002 6 58.734 40.8273 13.1434 -0.00173861 -0.00174386 0.005327
1918 1003 6 91.4036 47.9569 28.6259 -0.00129685 -0.0012476 -0.000438467
1919 1003 7 91.3432 49.0117 28.1472 -0.00305361 0.000705119 0.00408487
1920 1003 6 92.1458 49.826 27.9444 -0.00300685 -0.000248997 0.000437822
1921 1004 6 30.1434 14.1276 23.5813 0.00356063 -0.00471365 0.00122434
1922 1004 7 30.9534 13.3074 23.4455 0.00249881 -0.00547129 -0.000532128
1923 1004 6 30.7768 12.1606 23.401 0.00036412 -0.00482048 -0.00883775
1924 1005 6 38.0146 11.8047 6.40543 0.0035568 -0.000970161 -0.00140116
1925 1005 7 37.9125 10.8057 5.82791 -0.0046547 -0.00380209 0.00494948
1926 1005 6 37.4368 11.3767 4.93651 -0.00029517 -0.00560881 0.00146572
1927 1006 6 24.9842 18.4551 18.2784 -0.00317022 -0.000825623 0.00649039
1928 1006 7 24.8986 17.407 17.7877 -0.00702104 0.00242486 0.000219222
1929 1006 6 24.1908 16.5023 17.957 -0.000965422 -0.0014491 0.00483563
1930 1007 6 84.4719 46.8643 6.41922 0.000603114 0.000490759 -0.0010501
1931 1007 7 84.1941 47.9298 6.05561 -0.00149676 0.000206845 -0.000277632
1932 1007 6 83.2123 48.3812 6.4811 -0.00297917 -0.00249267 -0.000834361
1933 1008 6 18.4901 24.2009 2.53759 -0.00363879 -0.000634558 -0.00191464
1934 1008 7 18.8207 25.1624 1.97982 0.00113157 0.00229132 0.00595703
1935 1008 6 18.7174 26.1738 1.41833 0.00536304 -0.000476685 0.000192056
1936 1009 6 23.9239 35.6785 2.99342 0.00194356 -0.0053883 -0.00161332
1937 1009 7 22.966 35.7285 2.34082 0.00180045 0.00300126 -0.000761224
1938 1009 6 23.4557 35.8123 1.29136 0.00158638 0.00718363 -0.000527073
1939 1010 6 59.9423 25.976 18.3075 0.00192343 0.00321791 -0.00256874
1940 1010 7 59.0277 25.2888 18.5004 0.00156872 0.00557631 0.00414907
1941 1010 6 58.6431 24.2571 18.8655 0.00255592 0.00172629 -0.00569074
1942 1011 6 33.445 24.525 26.9665 0.000587287 0.00120221 0.00298114
1943 1011 7 33.1341 25.6404 27.0346 0.0012677 0.00157284 1.75229e-05
1944 1011 6 32.5117 26.6109 26.9024 0.00163789 0.00151453 -0.00215351
1945 1012 6 42.7451 3.75834 2.55557 -0.00264618 0.000130287 -0.00231003
1946 1012 7 41.8751 3.05797 2.86862 -0.000896168 -0.000334364 0.00151406
1947 1012 6 41.5722 2.15435 3.53021 0.0029409 -0.00168579 0.00142469
1948 1013 6 24.0568 7.09143 8.62602 -0.00365503 0.00065228 0.00305217
1949 1013 7 24.8813 6.27494 8.59114 -0.00356538 0.000928269 -0.00128863
1950 1013 6 25.3672 5.58441 9.38799 0.00100132 0.00123088 -0.00381109
1951 1014 6 70.3481 16.5846 16.6434 -0.000295891 -6.85352e-05 -0.00566464
1952 1014 7 69.3514 16.5659 17.236 -0.00106816 -0.00331859 -0.00706586
1953 1014 6 68.2975 16.9649 17.5115 0.00413416 0.00322631 0.0033564
1954 1015 6 37.8946 35.9885 23.3923 0.00216863 -0.00231978 0.00352054
1955 1015 7 36.8925 36.2965 22.8871 0.00352655 -0.000349829 0.00202797
1956 1015 6 36.275 36.9151 23.6524 0.00255301 -0.00120168 0.00193095
1957 1016 6 58.6574 35.4048 19.0857 -0.00161356 -0.00201995 -0.000350171
1958 1016 7 59.4081 36.2757 19.2459 -0.00224456 -0.00043988 -0.00598364
1959 1016 6 60.5399 36.3953 19.0191 -0.00140783 -0.00258484 -0.0029389
1960 1017 6 18.1296 17.5328 10.0311 0.000224967 0.00523467 0.00210329
1961 1017 7 17.8818 18.5138 9.464 -0.00291459 0.00222283 -0.001735
1962 1017 6 17.7429 19.4435 8.78397 -0.00152994 0.0019153 -0.00243817
1963 1018 6 51.7196 45.7422 3.7985 -0.00189454 -0.0071598 0.00614793
1964 1018 7 52.424 45.7054 4.71928 -0.000187928 -0.00366168 0.00498202
1965 1018 6 53.0465 46.0324 5.64382 0.00346071 0.000301127 0.00112334
ITEM: TIMESTEP
270000
ITEM: NUMBER OF ATOMS
57
ITEM: BOX BOUNDS xy xz yz pp pp pp
0.0000000000000000e+00 1.0131084100000001e+02 2.7630201000000000e+01
0.0000000000000000e+00 5.8491914999999999e+01 1.8420141000000001e+01
0.0000000000000000e+00 3.0080027000000001e+01 1.0634897000000000e+01
ITEM: ATOMS id mol type x y z vx vy vz
1909 1000 6 26.6015 3.82833 8.38042 -0.00176114 -0.00516609 0.00283454
1910 1000 7 27.2577 2.95687 7.98372 0.0025131 -0.00197859 0.00290251
1911 1000 6 55.3364 49.8726 8.49371 0.000126491 -0.00412833 0.00103351
1912 1001 6 41.6224 45.7854 26.1429 -0.00169849 -0.000473344 -0.00298373
1913 1001 7 40.8996 45.0198 26.6328 0.00120867 -0.00181228 -0.000786999
1914 1001 6 40.6763 44.4526 27.6197 0.00238129 0.00141226 0.0013316
1915 1002 6 64.2931 36.6598 21.2181 0.00093115 -0.00342336 0.00710206
1916 1002 7 65.4485 36.6264 21.3154 0.0020759 0.00121007 -0.00490288
1917 1002 6 66.5644 36.8092 21.5734 0.00264602 -0.00420622 -0.00353151
1918 1003 6 93.5368 46.6359 30.0553 -0.00384161 -0.000809157 -0.000979428
1919 1003 7 74.5857 36.8321 0.585855 -5.52562e-05 -0.00355836 0.00605447
1920 1003 6 74.9227 37.8903 0.924775 -0.0004004 -0.0024955 0.00307889
1921 1004 6 29.5266 13.9267 26.03 -0.00609644 0.00176285 -0.00260805
1922 1004 7 30.1815 13.7655 26.9747 -0.00561436 0.00217949 -0.00287117
1923 1004 6 31.3353 13.8762 27.0444 -0.00548364 0.00135242 -0.0037211
1924 1005 6 62.4917 48.6169 4.7159 -0.00132289 0.00114379 -0.00474135
1925 1005 7 63.605 48.8325 4.95302 -0.00343487 0.00515294 0.00152888
1926 1005 6 63.4452 48.4373 6.03247 -0.00750427 0.00234846 -0.000100106
1927 1006 6 16.0271 18.9155 10.7905 -0.00721654 -0.000192633 -0.00658521
1928 1006 7 16.8247 19.6383 10.3568 -0.00240242 -0.00365538 -0.00350316
1929 1006 6 17.2989 19.7646 9.30452 -0.00429694 0.000128846 -0.0039027
1930 1007 6 77.9449 44.9819 9.52754 -0.00177882 -0.00476049 0.00339105
1931 1007 7 78.8337 45.483 8.9764 -0.000299521 -0.0087494 0.00214977
1932 1007 6 78.7002 45.6616 7.83667 -0.00236883 -0.00520951 0.002947
1933 1008 6 68.8454 25.7125 5.61013 -0.00143328 -0.00253783 0.00430398
1934 1008 7 68.1806 25.5851 4.66845 0.00141879 0.000725111 0.00184907
1935 1008 6 67.2102 25.5065 4.03512 0.00324091 -0.00418622 -0.000333107
1936 1009 6 22.7327 35.6392 3.01391 -0.00185825 0.00107828 -0.00224663
1937 1009 7 23.7698 36.1588 3.03277 -0.000974528 -0.000928504 0.00443523
1938 1009 6 24.393 35.3586 2.46752 -0.00113827 0.00271112 -0.00089758
1939 1010 6 61.2123 23.3365 16.847 -0.00717415 -0.00536289 0.00138708
1940 1010 7 60.7186 24.3724 17.0177 -0.00301914 -0.00347182 0.00192905
1941 1010 6 60.0395 25.0299 17.69 -0.00464215 -0.00267458 -0.000490064
1942 1011 6 33.9868 25.1362 27.3216 -0.00227079 -0.00155 -0.00361501
1943 1011 7 34.5733 25.7864 26.5609 0.00541183 0.0021029 0.0054309
1944 1011 6 34.892 26.7031 25.9245 0.00421136 0.00163774 0.00415982
1945 1012 6 40.0396 5.78095 4.35293 -0.00330432 0.00182583 0.001317
1946 1012 7 40.7481 5.11365 3.72187 -0.00619341 0.00188639 -0.00199048
1947 1012 6 41.1022 4.85074 2.64882 -0.00492012 0.00802484 -0.00307427
1948 1013 6 33.067 10.2837 10.2039 0.0028604 -0.00676494 -0.00516292
1949 1013 7 32.1134 9.93127 9.64344 -0.00158372 0.000176435 -0.00196597
1950 1013 6 31.73 10.0442 8.55338 -0.00133178 -0.00271668 -0.00235442
1951 1014 6 37.8203 47.6725 10.3827 -0.00319041 0.000575547 0.00176264
1952 1014 7 38.3426 48.6863 10.5934 -0.00503218 0.00208815 -0.000950844
1953 1014 6 38.6466 49.5792 11.2687 -0.00473819 0.0033342 -0.00273055
1954 1015 6 24.6448 30.8748 3.61885 0.000669962 4.20453e-05 -0.00151268
1955 1015 7 24.9326 31.099 4.72398 -0.000121444 -0.00551784 -0.000178452
1956 1015 6 26.0428 30.7941 4.87924 0.00144371 -0.000967409 -0.0024355
1957 1016 6 58.4624 34.6867 12.831 0.00230523 -0.0019701 0.00153453
1958 1016 7 58.2722 35.1124 13.8942 -0.00478561 -0.00540131 0.00164035
1959 1016 6 58.5204 34.7214 14.9582 0.000122488 -0.0023932 0.00160099
1960 1017 6 20.0542 21.4083 10.0802 0.000972154 -0.00533482 -0.00093143
1961 1017 7 20.8766 22.1716 9.78618 0.00197247 -0.00579318 0.000676622
1962 1017 6 21.5798 23.049 9.50035 0.0026124 -0.00647582 0.000155627
1963 1018 6 41.6647 32.4657 16.896 -0.000580327 -0.00749787 0.00557624
1964 1018 7 42.7097 32.1397 16.5126 0.00186918 -0.000733186 0.00650079
1965 1018 6 43.862 32.0371 16.4078 0.00259556 0.00477253 0.00909843
ITEM: TIMESTEP
275000
ITEM: NUMBER OF ATOMS
57
ITEM: BOX BOUNDS xy xz yz pp pp pp
0.0000000000000000e+00 1.0131084100000001e+02 2.7630201000000000e+01
0.0000000000000000e+00 5.8491914999999999e+01 1.8420141000000001e+01
0.0000000000000000e+00 3.0080027000000001e+01 1.0634897000000000e+01
ITEM: ATOMS id mol type x y z vx vy vz
1909 1000 6 26.6857 8.6246 10.6545 -0.00203333 0.00453194 -0.000227236
1910 1000 7 25.5604 8.83706 10.4651 -0.00255058 0.00225568 0.000292688
1911 1000 6 24.6826 8.16547 10.1106 -0.00157595 0.000227263 0.00172177
1912 1001 6 38.6391 50.977 21.0728 -0.00118001 0.00275055 -0.000968066
1913 1001 7 39.4639 50.2991 20.6161 -0.00321149 0.000492748 -0.00128582
1914 1001 6 39.6369 49.3802 19.9295 -0.00584542 0.00156983 -0.00339084
1915 1002 6 61.6312 31.5228 18.1699 0.0045354 -0.00122289 0.00873959
1916 1002 7 60.555 31.7822 18.5162 0.000975063 -0.00405054 -0.000206528
1917 1002 6 59.5389 31.8737 19.0682 0.00228173 0.00660213 0.000433465
1918 1003 6 75.1476 33.8368 5.63325 -0.00327162 -0.00040404 0.00505927
1919 1003 7 74.5854 33.1005 4.93523 0.00307922 -0.00365052 0.00336882
1920 1003 6 73.9085 32.1817 5.14945 -0.00148043 -0.000717108 0.00154282
1921 1004 6 69.7377 15.0497 27.4097 0.00130845 -0.00286118 -0.00332587
1922 1004 7 70.4216 15.4587 28.2538 -0.00481044 -0.00158176 0.00101227
1923 1004 6 70.5408 15.0198 29.3221 -0.00171344 -0.00842279 -0.00214409
1924 1005 6 45.9025 16.8257 26.6522 0.00276972 -0.00306561 -0.000462584
1925 1005 7 46.0207 16.1324 27.5727 -0.00406238 -0.000216883 0.00255969
1926 1005 6 45.0898 15.5296 27.2305 -0.000902555 -0.00191508 -0.00304449
1927 1006 6 22.3518 17.1303 11.3807 0.000258562 0.000223747 0.00524491
1928 1006 7 21.6355 18.0337 11.5124 -0.00260654 -0.00192681 0.00441485
1929 1006 6 20.5162 18.2082 11.2576 -0.000971754 -0.00285909 -0.00340597
1930 1007 6 78.6913 44.2346 9.94798 0.00522708 0.0040538 0.00175382
1931 1007 7 78.6181 45.2379 9.37106 0.00157453 0.00143815 -0.00233127
1932 1007 6 77.818 45.2936 8.53111 0.000259499 -0.00434559 -0.00146207
1933 1008 6 17.6396 18.5736 9.75696 -0.00177463 -0.00185322 -0.00257451
1934 1008 7 18.3851 17.7096 9.55064 -0.00152771 -0.00285233 0.00250179
1935 1008 6 18.7867 16.7129 9.10986 0.00295793 0.000565199 -0.00113943
1936 1009 6 22.0639 29.3475 4.97172 0.000616844 -0.00160249 -0.00200219
1937 1009 7 21.2744 30.1419 5.27409 -0.00345367 -0.00685463 0.00116713
1938 1009 6 21.982 31.0302 5.51565 -0.00840842 -0.002068 -0.00192122
1939 1010 6 56.6342 26.2864 15.8498 -0.00108835 0.00116233 -0.00110006
1940 1010 7 56.8072 26.1309 14.7133 0.0010611 -0.00300802 -0.000202451
1941 1010 6 57.4116 26.4291 13.7692 -0.00350057 0.000371596 -0.00205563
1942 1011 6 33.5256 23.4839 27.4911 -0.00192136 -0.00188675 0.00133779
1943 1011 7 32.4053 23.2617 27.289 -0.00260094 -0.000702132 0.00380278
1944 1011 6 31.4082 22.6759 27.1912 -0.000754857 -0.00219776 -0.00606133
1945 1012 6 38.9456 3.79681 3.50474 -0.00403439 0.00794048 -0.00296399
1946 1012 7 39.7199 4.59341 3.17121 0.000307271 0.00405053 -0.00217451
1947 1012 6 40.3158 5.53478 3.49471 0.00292146 0.00245971 -0.00236083
1948 1013 6 64.2065 46.4466 5.03123 -0.000437701 -0.00119292 -0.00232787
1949 1013 7 65.3359 46.5071 4.76972 -0.000368809 -0.00110355 -0.00200964
1950 1013 6 66.2937 46.0229 5.21252 -0.000739044 -0.00316206 -0.00345978
1951 1014 6 38.2776 48.0876 10.2287 0.00147469 0.00190256 -0.00324364
1952 1014 7 37.576 48.7794 9.61689 0.000181281 0.00192897 -0.00173057
1953 1014 6 36.6948 49.5245 9.4982 -0.00557203 -0.0047768 -0.00111379
1954 1015 6 25.4516 30.1103 4.44629 -0.00394819 -0.000545038 0.00353454
1955 1015 7 24.5714 30.062 3.68642 -0.000347649 0.00373165 -0.000907575
1956 1015 6 25.0047 29.7808 2.6459 0.00347744 0.00117158 0.00137753
1957 1016 6 57.9938 33.1754 12.3356 0.00368167 -0.00180864 7.03423e-05
1958 1016 7 58.5264 33.4425 13.3319 0.00255191 -0.000537584 0.000333579
1959 1016 6 59.4825 34.0524 13.5782 0.00043815 0.00255741 0.000874853
1960 1017 6 21.5142 26.3702 11.2044 -0.00218096 0.00389743 0.00208233
1961 1017 7 21.5041 25.2579 11.5332 -0.00120428 0.00320912 -0.000215385
1962 1017 6 21.501 24.2033 12.0167 -0.000762755 0.00221766 -0.00237548
1963 1018 6 39.8101 35.1723 14.6831 0.00122433 -0.00204807 0.00192894
1964 1018 7 40.2871 34.3018 15.2832 -0.000911553 -0.00365646 0.00129345
1965 1018 6 40.7617 33.6917 16.1503 0.00633396 -0.00255998 -0.00190166
ITEM: TIMESTEP
280000
ITEM: NUMBER OF ATOMS
57
ITEM: BOX BOUNDS xy xz yz pp pp pp
0.0000000000000000e+00 1.0131084100000001e+02 2.7630201000000000e+01
0.0000000000000000e+00 5.8491914999999999e+01 1.8420141000000001e+01
0.0000000000000000e+00 3.0080027000000001e+01 1.0634897000000000e+01
ITEM: ATOMS id mol type x y z vx vy vz
1909 1000 6 55.6052 50.045 8.85983 -0.00246945 -0.00139101 -0.00301929
1910 1000 7 27.8793 3.30152 8.54626 0.00413952 -0.0017603 -0.00634632
1911 1000 6 28.5154 4.24267 8.78497 0.0055732 -0.00351471 -0.00324935
1912 1001 6 91.9735 53.5716 22.7669 -0.0064982 -0.000193157 -0.00215877
1913 1001 7 91.8527 54.6229 22.2888 0.00543297 0.000326083 -0.00403103
1914 1001 6 91.6396 55.1699 21.2882 -0.00517165 0.000558822 -0.00164549
1915 1002 6 65.2366 41.5011 14.73 -0.00786391 0.00130589 0.00487216
1916 1002 7 65.9751 41.501 15.6244 -0.00654211 0.000246769 0.00378056
1917 1002 6 66.6229 41.7554 16.5524 0.00533772 0.0040393 -0.00555261
1918 1003 6 69.1499 24.1954 6.63154 -0.00517875 -0.00209477 0.00241717
1919 1003 7 68.7638 23.9157 7.68894 -0.000494837 0.00612776 0.00630252
1920 1003 6 69.0436 23.0607 8.42316 -0.0088828 0.00218565 0.00490837
1921 1004 6 81.224 42.583 3.68569 0.00273742 -0.0036484 0.00127472
1922 1004 7 26.7222 42.4912 2.81202 -0.000966878 0.00387496 -0.00273314
1923 1004 6 27.7398 43.0425 2.71796 -0.000168841 0.00268884 -0.00105125
1924 1005 6 45.9277 15.5289 28.5208 0.00579429 0.00142447 -0.00331222
1925 1005 7 46.3818 16.5913 28.4353 0.00151803 0.00372857 0.00261141
1926 1005 6 45.6091 16.8483 27.6084 0.00379766 0.00352079 0.000416669
1927 1006 6 23.2678 17.2285 12.1396 0.00669424 -0.00480615 0.00147193
1928 1006 7 23.0263 16.2259 11.6076 0.00359671 -0.00195409 -0.00249751
1929 1006 6 22.2046 15.8998 10.8549 -0.000712115 0.0021146 0.000443653
1930 1007 6 78.8921 45.2567 9.13006 0.00573577 0.00212622 -0.00044488
1931 1007 7 78.6478 44.8923 10.2035 0.004266 0.0024753 -0.000660841
1932 1007 6 79.1111 43.8761 10.522 -0.000822543 -0.000165931 -0.00168659
1933 1008 6 16.1501 18.6667 10.1002 -0.00381271 -0.00397462 -0.00386032
1934 1008 7 15.8949 19.7835 10.2806 -0.000577073 -0.00348063 -0.00234254
1935 1008 6 71.2565 20.9385 10.2109 0.00169172 -0.00367706 -0.00230712
1936 1009 6 35.3428 37.8949 29.2852 0.00364198 0.000930667 -0.00184174
1937 1009 7 35.6182 37.3876 28.2788 0.00111087 -0.00298122 -0.000562763
1938 1009 6 35.135 36.3463 28.4528 -0.00341422 -0.000390264 0.00237748
1939 1010 6 52.3812 26.5433 11.5844 0.00187904 0.000434629 -0.00322513
1940 1010 7 51.3913 25.9391 11.5558 0.00132748 0.00101334 0.00363121
1941 1010 6 50.8723 24.9283 11.3222 -0.00195256 0.00338264 0.000666236
1942 1011 6 32.7408 24.5961 26.5516 -0.00767784 0.00491788 0.00196417
1943 1011 7 33.5826 25.3775 26.3902 -0.0025399 -0.000734743 0.00139435
1944 1011 6 34.3887 26.0206 25.8577 -0.00196713 -0.00269948 -0.000111118
1945 1012 6 50.0814 13.3726 27.8109 -0.00491563 0.00174137 -0.00208799
1946 1012 7 50.7878 13.9685 28.5118 -0.00303865 -0.00454622 0.00136592
1947 1012 6 50.936 14.3813 29.5858 -0.00845974 0.00131632 -0.000139959
1948 1013 6 64.6001 41.168 2.78708 -0.00451113 -0.000999418 -0.0018828
1949 1013 7 63.6901 41.8767 2.91827 -0.00364977 0.000830885 -0.00579494
1950 1013 6 63.5688 42.9791 3.2617 -0.00323432 9.73158e-05 -0.00329351
1951 1014 6 13.8636 6.15229 15.7656 -0.00215924 -0.00183191 0.000411672
1952 1014 7 41.722 53.1109 16.4626 0.00652693 0.00328632 0.00416455
1953 1014 6 42.1844 52.0755 16.7072 -0.00368935 -0.00195867 0.00127352
1954 1015 6 18.4975 26.6522 1.85989 -0.00180351 -0.0022463 -0.00232973
1955 1015 7 17.5047 26.3155 2.36534 0.00139522 0.00127274 0.0062969
1956 1015 6 17.73 25.3866 3.02559 0.00289701 -0.00245858 0.00053477
1957 1016 6 57.2209 37.3531 10.3953 0.00325369 0.0007628 -0.00234042
1958 1016 7 56.3465 36.7078 9.98704 0.00489744 -0.00220772 -0.0011657
1959 1016 6 55.5741 36.8706 9.13645 0.00037693 -0.00286546 0.00281318
1960 1017 6 74.9217 26.5309 12.9656 0.0014012 0.00213879 -0.00607602
1961 1017 7 74.0721 27.1319 12.4534 -0.000660422 -0.000164502 -0.0053588
1962 1017 6 73.315 27.8664 11.9704 -0.00472345 -0.0017818 -0.00144908
1963 1018 6 46.4387 35.9168 21.259 0.00124452 0.00522545 0.0030235
1964 1018 7 47.4923 35.4458 21.1432 -9.61485e-05 0.00269022 0.00113782
1965 1018 6 48.4318 34.95 20.6732 9.87573e-05 0.0056836 -0.0016304
ITEM: TIMESTEP
285000
ITEM: NUMBER OF ATOMS
57
ITEM: BOX BOUNDS xy xz yz pp pp pp
0.0000000000000000e+00 1.0131084100000001e+02 2.7630201000000000e+01
0.0000000000000000e+00 5.8491914999999999e+01 1.8420141000000001e+01
0.0000000000000000e+00 3.0080027000000001e+01 1.0634897000000000e+01
ITEM: ATOMS id mol type x y z vx vy vz
1909 1000 6 50.5201 51.3318 11.346 -0.00237204 -0.00280885 -0.00296831
1910 1000 7 51.4426 50.8785 10.8066 -0.00201747 -0.00546112 -0.000133133
1911 1000 6 51.9649 49.8444 10.8776 -0.000539373 -0.00421429 0.00714808
1912 1001 6 89.2269 52.4409 20.7955 -0.00107312 -0.00158365 0.00400303
1913 1001 7 89.0731 51.7137 21.6878 -0.000991498 -0.00231935 0.00341744
1914 1001 6 88.5573 50.7229 22.0009 -0.0040549 -0.0006361 0.00369724
1915 1002 6 60.5902 27.57 7.38497 -0.00791553 -0.000351679 -0.00707813
1916 1002 7 60.7481 28.5441 7.99457 -0.00502373 -0.00703339 0.00284991
1917 1002 6 60.6467 29.4771 8.67624 -0.00624488 -0.00658305 0.0020519
1918 1003 6 70.3136 25.6875 13.4065 0.0035209 -0.000929486 -0.00271653
1919 1003 7 69.3224 25.1599 13.1156 0.00430482 -0.00438306 0.00087553
1920 1003 6 68.8852 24.1166 13.3776 0.00633717 -0.00367096 0.00710275
1921 1004 6 45.767 52.489 26.1118 0.000135591 0.000538095 -0.00572247
1922 1004 7 46.8436 52.8016 26.413 0.00178734 -0.0050798 -0.005797
1923 1004 6 47.4771 52.3567 27.2784 -0.00343083 -0.00296958 -0.000892495
1924 1005 6 43.0598 12.6916 28.9526 0.00426832 -0.00461119 0.0027593
1925 1005 7 43.2214 13.1689 29.9957 -0.000138491 -0.00315743 0.00277718
1926 1005 6 42.3726 13.9283 29.7731 0.00123715 -0.00305658 -0.00212304
1927 1006 6 23.8209 17.1334 12.4663 0.00377137 -0.000335319 -0.00458308
1928 1006 7 23.111 16.5371 11.7684 -0.00131494 0.00386279 -0.00299635
1929 1006 6 22.0923 16.0047 11.9329 0.000660855 0.001504 0.00160479
1930 1007 6 75.8755 44.4819 11.1725 -0.000178015 0.000314388 -0.000847465
1931 1007 7 76.1704 45.5124 10.73 -0.000781581 -9.30421e-05 -0.00219827
1932 1007 6 75.3183 46.2954 10.6319 -0.000203526 0.000993645 0.0014575
1933 1008 6 15.8026 15.315 12.1407 -0.00238556 0.000657022 0.00160716
1934 1008 7 15.7467 16.2072 11.4019 0.00525262 0.00338184 0.00431992
1935 1008 6 15.9443 16.824 10.4378 -0.0016994 -0.00142579 -0.000181431
1936 1009 6 68.5152 28.8821 1.17941 -0.00137061 -0.0037742 -0.00322619
1937 1009 7 68.4013 29.801 0.480534 -0.00139785 -0.00319728 -0.0024632
1938 1009 6 67.2576 29.9748 0.580625 -0.000481929 0.000184797 0.00213171
1939 1010 6 52.6146 22.2939 12.9585 -0.00258573 -0.00221327 0.00273172
1940 1010 7 52.4827 23.3261 13.4714 -8.2548e-05 -0.0010649 0.00106419
1941 1010 6 52.2001 24.4449 13.3527 -0.00307145 -0.00188635 0.000437311
1942 1011 6 18.2478 13.0135 3.55865 -0.00101736 0.000222931 0.00271845
1943 1011 7 17.1545 13.1633 3.20136 0.00028108 0.000139309 -0.0012897
1944 1011 6 16.0516 12.9248 2.93014 -0.000100503 0.001136 -0.000614265
1945 1012 6 37.6204 16.4993 26.9009 -0.00355936 0.00641971 -0.00454251
1946 1012 7 37.8496 15.7017 26.0905 -0.00444982 0.00268515 -0.0011186
1947 1012 6 38.3917 14.7005 25.8675 -0.00482235 0.00157945 0.00294014
1948 1013 6 62.8679 42.0849 3.94508 0.00172674 -0.000502028 -0.00291903
1949 1013 7 61.8415 41.5631 4.0931 0.000842003 0.00333163 0.00445942
1950 1013 6 60.745 41.9406 4.14768 0.00139444 0.00585252 -0.00187655
1951 1014 6 91.1279 52.2324 14.4131 -0.00439138 -0.00549381 -0.00510508
1952 1014 7 36.3295 51.2204 14.7404 -0.00712331 -0.0059779 -0.00274478
1953 1014 6 37.1339 50.3851 14.7073 -0.00621423 -0.00535452 0.0036143
1954 1015 6 70.7187 28.0567 3.4259 -0.000189302 0.000307836 -0.00126717
1955 1015 7 70.5565 26.9243 3.21205 -0.00372065 0.000979248 -0.00214544
1956 1015 6 16.3372 26.4112 3.16272 -0.00531841 -0.00221964 -0.00259489
1957 1016 6 54.9511 34.1528 5.8566 -0.000183486 0.00222347 0.00266369
1958 1016 7 55.1229 33.0661 6.22697 0.00369754 0.00297262 0.00306192
1959 1016 6 55.2706 32.6044 7.28132 0.00249887 0.00351705 0.00346817
1960 1017 6 69.8817 22.07 9.64573 0.000580541 -0.000432329 0.00221394
1961 1017 7 70.7439 21.6678 8.98215 -0.000676352 -0.00293608 0.00209808
1962 1017 6 16.3828 21.1679 8.44628 0.00235355 -0.000268012 0.00469434
1963 1018 6 39.2222 34.3932 23.9932 0.00305942 -0.000140856 0.0034531
1964 1018 7 40.1331 33.6755 24.0159 -0.000832737 -0.00527885 -0.00280935
1965 1018 6 41.153 33.1815 23.7609 0.002684 -0.000436906 0.00187679
ITEM: TIMESTEP
290000
ITEM: NUMBER OF ATOMS
57
ITEM: BOX BOUNDS xy xz yz pp pp pp
0.0000000000000000e+00 1.0131084100000001e+02 2.7630201000000000e+01
0.0000000000000000e+00 5.8491914999999999e+01 1.8420141000000001e+01
0.0000000000000000e+00 3.0080027000000001e+01 1.0634897000000000e+01
ITEM: ATOMS id mol type x y z vx vy vz
1909 1000 6 56.8728 51.6613 13.5073 0.00211778 0.00284446 0.00149277
1910 1000 7 56.2976 51.0433 12.7106 0.00359969 -0.000898048 0.00332584
1911 1000 6 55.1827 51.0203 12.3882 0.00529807 0.00185566 -0.00274368
1912 1001 6 39.2915 51.6247 21.5679 -0.00278782 -0.000235088 -0.00115424
1913 1001 7 40.3092 51.6026 21.0091 -7.0412e-05 0.0046977 0.00359983
1914 1001 6 41.3513 51.093 20.9958 -0.00149465 0.00183826 0.00157469
1915 1002 6 74.9009 26.4562 12.9627 0.00121323 -3.21239e-05 0.00136366
1916 1002 7 75.181 25.6046 12.2267 0.00521808 0.00319962 -0.000852066
1917 1002 6 20.4332 24.8925 11.4681 0.0119904 0.0029619 0.00394766
1918 1003 6 18.5069 17.5876 15.4148 0.00100352 -0.00342679 -0.00156764
1919 1003 7 19.0774 18.18 16.2327 0.00129333 -0.00411179 -0.0012736
1920 1003 6 19.2076 19.3173 16.4277 -0.00600259 -0.00431769 0.00480075
1921 1004 6 49.5678 49.9038 20.2439 -0.0068098 -0.00281184 -7.59094e-05
1922 1004 7 49.7304 50.6937 21.0787 -0.00276616 -0.00114054 -0.00244488
1923 1004 6 50.3816 50.5694 22.0321 -0.00271701 -0.00130409 -0.00249977
1924 1005 6 54.1587 45.4351 6.60173 -0.00237589 -0.000284515 -0.000155971
1925 1005 7 53.1916 45.3045 5.97749 -0.00562125 0.00255393 0.00427799
1926 1005 6 52.6142 45.9528 6.74768 -0.00140282 -0.000169384 0.00973288
1927 1006 6 22.8896 17.5395 12.2927 0.00300976 -0.0014702 0.00336952
1928 1006 7 22.6157 16.6786 11.5644 -3.89751e-06 0.00141531 0.00109217
1929 1006 6 21.7294 15.9303 11.5111 0.000631076 0.000545027 0.00275128
1930 1007 6 52.2492 5.15913 12.4152 0.00339599 -0.00130492 -0.00465681
1931 1007 7 51.6476 4.86376 11.4688 -1.74271e-05 -0.00485925 -0.00137772
1932 1007 6 50.8724 4.00842 11.5956 0.00335899 -0.00717477 0.00364663
1933 1008 6 67.7882 17.5285 13.589 0.000129721 0.00320033 0.00210396
1934 1008 7 68.6207 18.328 13.7011 -0.000803918 0.00477306 -0.00217655
1935 1008 6 69.1686 19.2647 14.1152 0.00223339 0.00245178 -0.000944795
1936 1009 6 34.6889 36.6542 24.6241 -0.00158923 -0.0014341 -0.00205942
1937 1009 7 35.7938 36.556 24.9637 -0.00285275 -0.00374095 0.00138518
1938 1009 6 36.0073 37.6641 25.2372 0.000992132 -0.00282856 -0.00531342
1939 1010 6 67.0585 20.7896 25.2769 0.00721032 0.00260885 0.000533766
1940 1010 7 66.0329 20.737 24.7372 0.00458449 0.00510631 0.00528024
1941 1010 6 65.4358 20.914 23.7585 0.00215144 -0.00115631 0.00563179
1942 1011 6 12.0987 18.081 0.393995 0.00194515 0.00233316 0.00134347
1943 1011 7 12.092 19.2231 0.192073 0.0045039 0.00190545 -0.00116134
1944 1011 6 12.1622 20.2323 -0.376703 -0.00317376 9.93052e-05 -0.0053135
1945 1012 6 24.061 2.11767 2.88076 -0.00371392 -0.000725 0.00186743
1946 1012 7 23.8231 1.06522 3.30645 -0.000970363 -0.0021189 -4.53973e-05
1947 1012 6 51.2972 47.803 3.04415 0.000336161 -0.00177324 -0.00229803
1948 1013 6 65.1786 41.1868 1.04322 -0.000433165 -0.000616643 0.00182127
1949 1013 7 64.7063 40.688 0.107393 -0.00191873 0.0058379 -0.000868748
1950 1013 6 83.4543 51.2143 29.079 0.00348288 0.000304193 0.00127085
1951 1014 6 65.5732 9.07471 20.3065 1.17852e-05 -0.00267697 -0.00114376
1952 1014 7 64.5146 8.78803 19.9295 0.00169863 -0.00265277 -0.00589859
1953 1014 6 63.5353 8.97608 19.3366 -0.000975912 0.00310132 0.000343895
1954 1015 6 70.5125 35.671 3.55725 -0.000537781 0.000587701 -0.000610574
1955 1015 7 70.6975 36.8117 3.41997 -0.00402011 0.00102931 -0.00163528
1956 1015 6 71.6212 37.1093 4.05855 -0.00153251 0.00334118 -0.00631103
1957 1016 6 54.3133 30.904 6.61543 -0.00275325 0.000459999 0.00256935
1958 1016 7 53.7003 30.3226 5.81917 -0.00142438 0.00141621 0.00084829
1959 1016 6 52.8198 30.6228 5.12546 0.00115485 0.00285994 -0.00180083
1960 1017 6 71.149 15.945 16.5077 -0.000312996 -0.00273636 0.00367519
1961 1017 7 70.65 16.1776 17.5287 -3.86608e-05 -0.000439221 0.00328605
1962 1017 6 70.0305 16.4807 18.4616 -0.00325173 -0.00459557 0.00250258
1963 1018 6 37.5099 37.0464 20.3005 0.000577248 -0.00238771 -0.000104009
1964 1018 7 37.3124 36.5226 21.3163 0.00300163 -0.000730142 0.00122237
1965 1018 6 37.2018 36.3387 22.458 0.0094363 0.000111051 0.00198074
ITEM: TIMESTEP
295000
ITEM: NUMBER OF ATOMS
57
ITEM: BOX BOUNDS xy xz yz pp pp pp
0.0000000000000000e+00 1.0131084100000001e+02 2.7630201000000000e+01
0.0000000000000000e+00 5.8491914999999999e+01 1.8420141000000001e+01
0.0000000000000000e+00 3.0080027000000001e+01 1.0634897000000000e+01
ITEM: ATOMS id mol type x y z vx vy vz
1909 1000 6 33.4165 6.47992 8.69107 0.00214495 0.00212497 -0.0013189
1910 1000 7 33.7608 6.47156 9.79956 0.00355218 0.00177078 -0.00175872
1911 1000 6 33.6675 7.24786 10.6574 -0.000183564 -0.000721437 8.99406e-05
1912 1001 6 15.5663 6.56507 16.1017 -0.00386565 -0.0069935 -0.000122051
1913 1001 7 14.6163 6.71247 16.753 -0.0025812 -0.00497344 0.00129415
1914 1001 6 14.0836 7.45835 17.464 -0.000512581 -0.00334305 0.00113371
1915 1002 6 60.9694 24.2614 5.79913 -0.00309273 -0.00247657 -0.00428091
1916 1002 7 61.1594 23.1803 5.42444 0.000907279 0.00125058 -0.0130073
1917 1002 6 61.5989 22.1426 5.14968 -0.000379895 -0.0011896 -0.00585033
1918 1003 6 19.1549 14.0709 13.4307 0.000304 -0.00611583 -0.001744
1919 1003 7 18.5163 13.8712 12.4832 -0.00227939 -0.00534977 -0.000164548
1920 1003 6 18.6832 13.1922 11.5561 -0.00273986 -0.00121501 -0.00327527
1921 1004 6 42.2541 48.9016 20.08 0.00195114 -0.00366583 -0.00215061
1922 1004 7 42.4427 49.9491 20.5432 -0.00631858 -0.00178947 -0.00302742
1923 1004 6 42.6259 50.9391 19.9647 -0.00231179 -0.00298121 -0.00379778
1924 1005 6 39.5227 14.3112 27.5791 -0.00441156 -0.00390678 -0.0019085
1925 1005 7 40.3422 14.1854 28.3882 -0.000721733 0.00176244 -0.00476452
1926 1005 6 41.0982 14.7333 27.6988 -0.00630627 0.00498575 -0.00832698
1927 1006 6 23.7961 17.2014 12.1267 0.00102302 -0.00157185 0.00437431
1928 1006 7 22.7036 16.9251 11.8498 0.00172496 -0.00229207 0.00232296
1929 1006 6 21.9685 16.1073 12.2227 0.000390926 -0.000601425 0.003401
1930 1007 6 51.8938 7.45016 15.8675 3.77783e-06 0.00153794 0.00177211
1931 1007 7 51.3166 8.43878 16.0526 0.00501123 0.00388203 0.00486619
1932 1007 6 50.3967 8.37544 16.7586 -0.000563828 0.00457579 -0.00233577
1933 1008 6 68.1937 17.9172 12.5153 -0.00325968 -0.00330106 -0.00438706
1934 1008 7 68.937 17.0498 12.7157 -0.00144493 -0.000675773 0.000243592
1935 1008 6 69.9565 16.4996 12.7976 -0.00076348 0.000175816 -0.00251622
1936 1009 6 36.9334 33.5024 27.2751 0.0116696 -0.00172099 0.00211369
1937 1009 7 37.0596 33.8187 28.3841 0.00691603 0.00148335 0.00174104
1938 1009 6 36.6528 34.9043 28.3192 0.00215793 -0.000526186 -0.00204631
1939 1010 6 46.4454 21.9971 4.85571 -0.00214812 0.00224291 0.00324356
1940 1010 7 45.6853 21.4782 5.56195 0.00135742 7.04719e-05 0.00542059
1941 1010 6 44.585 21.3981 5.92051 0.00161235 -0.00697434 0.00462865
1942 1011 6 12.3979 15.7498 5.59475 0.00136536 -0.0003208 0.00331504
1943 1011 7 12.9619 15.3347 4.67017 -0.00633943 -0.00618026 0.00124607
1944 1011 6 13.2514 15.1419 3.56295 -0.00158251 0.00453806 0.00062288
1945 1012 6 24.164 4.05605 2.67472 -0.00398586 -0.00689898 0.00241835
1946 1012 7 23.7961 3.39221 1.79755 0.0064941 -0.00383484 -0.00429613
1947 1012 6 23.347 3.39231 0.72784 -0.00236457 -0.000108808 -0.000576933
1948 1013 6 84.7978 50.1154 26.4457 0.00154771 0.000254215 0.00302746
1949 1013 7 83.6508 50.2335 26.5799 0.00165088 0.00259301 0.0018511
1950 1013 6 82.8933 51.0799 26.3399 0.00284205 0.00206375 -0.00377479
1951 1014 6 60.81 9.66802 14.6689 -0.00067553 -0.00566635 -0.00421898
1952 1014 7 59.9119 9.36442 15.3369 -0.00135737 0.000713763 -0.00223601
1953 1014 6 59.3765 8.69501 16.1185 -0.00220158 0.00810347 0.00351414
1954 1015 6 85.6777 45.3798 28.8012 0.00158283 0.000732048 0.00142312
1955 1015 7 85.3813 45.9923 29.7454 0.00185408 -0.000287053 0.00216938
1956 1015 6 67.8198 35.2653 0.442471 0.00195384 -0.0013542 0.00193268
1957 1016 6 56.4826 34.1923 5.39324 -0.00340847 0.000352706 -0.0022845
1958 1016 7 56.8147 33.6764 4.40765 -0.00149375 0.000715418 -0.00182926
1959 1016 6 56.2293 33.2744 3.48988 0.000241943 0.000512852 -0.00284754
1960 1017 6 20.6284 19.4804 20.9705 -0.0022691 0.00018634 -0.00601986
1961 1017 7 21.6466 19.4438 20.416 -0.000829242 0.00258727 -0.00353437
1962 1017 6 22.583 19.3301 19.7406 0.00185517 0.00142284 0.000383044
1963 1018 6 37.7454 36.27 21.546 -0.000497903 0.00329515 0.00249442
1964 1018 7 36.756 36.5384 21.0034 -0.000720408 -0.000194549 0.00117384
1965 1018 6 35.6375 36.7849 20.81 -0.000469423 0.000238279 0.000273989
ITEM: TIMESTEP
300000
ITEM: NUMBER OF ATOMS
57
ITEM: BOX BOUNDS xy xz yz pp pp pp
0.0000000000000000e+00 1.0131084100000001e+02 2.7630201000000000e+01
0.0000000000000000e+00 5.8491914999999999e+01 1.8420141000000001e+01
0.0000000000000000e+00 3.0080027000000001e+01 1.0634897000000000e+01
ITEM: ATOMS id mol type x y z vx vy vz
1909 1000 6 41.7151 17.5339 14.384 0.00231317 -0.000157237 0.00410202
1910 1000 7 41.9627 18.225 13.4848 -0.00162188 -0.00327621 0.000621331
1911 1000 6 42.3039 18.0074 12.3969 -0.00206458 -0.0068793 0.00120308
1912 1001 6 88.8371 52.8977 20.5018 -0.00635155 -0.00201363 -0.00331909
1913 1001 7 88.1099 52.0897 20.9102 -0.00496194 -0.00111145 0.000940479
1914 1001 6 88.0117 51.2368 21.6903 0.000196214 -0.00406825 -0.00164296
1915 1002 6 63.3426 20.5272 1.92689 0.00314546 0.00635237 -0.00150473
1916 1002 7 63.5459 20.4491 0.787603 -0.00229153 0.000106925 -0.00204646
1917 1002 6 82.3207 30.792 29.8026 0.000993231 0.000561012 -0.00107715
1918 1003 6 18.4951 19.9261 9.20371 -0.00129298 0.00303139 0.000563197
1919 1003 7 18.4914 18.7862 9.41796 0.00206675 0.000931372 -0.0105525
1920 1003 6 19.3451 18.0043 9.50802 0.00548232 0.00570768 -0.00145899
1921 1004 6 79.7804 49.972 17.5774 0.00289895 0.00470808 -0.00646775
1922 1004 7 80.1049 50.2846 18.6472 0.000237811 -0.00576784 -0.00259988
1923 1004 6 81.1935 50.3977 19.0351 -0.000725508 -0.000752878 -0.00135931
1924 1005 6 15.8545 5.13139 2.22766 -0.00606381 -0.000879767 0.00178481
1925 1005 7 15.3396 4.47819 1.42126 -0.00161137 -0.000616574 -0.00127099
1926 1005 6 16.2925 4.55085 0.762776 -0.00129776 0.00712622 3.72713e-05
1927 1006 6 22.6679 16.5495 12.1572 0.000559782 0.00643018 -0.00407675
1928 1006 7 22.4264 15.719 11.3836 0.00156803 0.00170296 0.000682999
1929 1006 6 21.4552 15.3992 10.8333 0.0019856 -0.00254265 0.00241315
1930 1007 6 45.6932 11.8788 14.3262 -0.000764449 0.00295436 -0.00128855
1931 1007 7 45.9746 11.3782 15.3337 -0.00393897 0.00692917 0.00157294
1932 1007 6 46.8716 11.8412 15.9078 0.00200516 0.0015613 -0.00338519
1933 1008 6 69.2309 16.8248 12.0772 -0.00101237 -0.000904136 0.00264377
1934 1008 7 14.3275 15.8568 11.5477 0.000321157 -0.000912337 0.00355813
1935 1008 6 14.9923 15.1702 10.8877 -0.00380568 0.0015224 -0.00313068
1936 1009 6 32.1676 28.2141 9.79328 -0.00510212 -0.0048398 0.00228207
1937 1009 7 31.7995 29.2858 9.54489 -0.000722603 -0.00448104 -0.00266111
1938 1009 6 30.9686 29.0275 8.77603 0.00245684 -0.00426639 -0.00616912
1939 1010 6 40.8793 17.7313 2.92756 -0.00337884 0.00164267 0.00131292
1940 1010 7 40.975 17.3425 1.83873 -0.00879687 0.0026399 0.000480515
1941 1010 6 40.9593 16.4283 1.12489 0.0025418 0.00152298 0.00166242
1942 1011 6 68.5664 24.7856 17.9086 0.00894745 -0.00100994 0.00117246
1943 1011 7 68.5876 24.6481 16.7571 0.00507527 0.00097973 0.000863436
1944 1011 6 68.8251 24.1953 15.7152 -0.00322274 -0.000405513 -0.000425468
1945 1012 6 50.6562 48.192 2.64469 0.000639596 -0.00403925 0.00230869
1946 1012 7 23.5618 1.00919 1.86763 -0.00273893 -0.00313724 0.000761998
1947 1012 6 24.4074 1.78673 1.70523 -0.00248448 -0.00405554 -0.00230995
1948 1013 6 88.7218 55.0325 27.464 -0.00138716 0.00353045 -0.00430839
1949 1013 7 88.32 56.0186 27.9264 -0.00325347 -0.00100746 0.00374604
1950 1013 6 88.6989 56.7316 28.7606 -0.000259821 -0.00260557 0.00375228
1951 1014 6 88.8379 49.1517 14.4686 0.00169978 -0.0005675 0.00108234
1952 1014 7 88.3163 49.3262 15.4896 0.00168905 -0.00294466 0.001483
1953 1014 6 87.3974 49.5372 16.1655 0.00277901 0.00207175 0.00139911
1954 1015 6 84.6442 46.747 28.3079 0.00320759 -0.000470559 -0.00462127
1955 1015 7 85.1116 46.9169 29.3601 -0.0024696 1.47271e-05 -0.00217776
1956 1015 6 86.1691 46.4361 29.3697 -0.000925088 0.00350552 0.00247787
1957 1016 6 55.3357 31.9436 7.6769 -0.00342061 0.00171569 0.00357295
1958 1016 7 55.2694 32.6723 6.77564 -0.0017037 -0.00135068 0.000967339
1959 1016 6 55.6304 32.603 5.67497 0.00819508 -0.00150161 0.00422329
1960 1017 6 71.8866 23.9624 20.2377 -0.00207631 0.00342593 -0.00336977
1961 1017 7 71.3697 22.9249 20.1954 -0.00396954 0.00414939 0.00202671
1962 1017 6 70.9375 21.8524 20.2906 0.00435444 0.000618782 4.54094e-05
1963 1018 6 86.6307 42.4337 18.5674 0.00446731 -0.00147792 0.00281907
1964 1018 7 87.0156 43.2686 19.2747 0.00234544 0.00292675 -0.00122484
1965 1018 6 87.0731 44.0341 20.1465 0.00375339 0.00198815 -0.000493526
ITEM: TIMESTEP
305000
ITEM: NUMBER OF ATOMS
57
ITEM: BOX BOUNDS xy xz yz pp pp pp
0.0000000000000000e+00 1.0131084100000001e+02 2.7630201000000000e+01
0.0000000000000000e+00 5.8491914999999999e+01 1.8420141000000001e+01
0.0000000000000000e+00 3.0080027000000001e+01 1.0634897000000000e+01
ITEM: ATOMS id mol type x y z vx vy vz
1909 1000 6 42.4911 17.4343 12.2246 0.00155531 0.00598361 0.00290159
1910 1000 7 41.5954 16.8811 11.7356 0.00850936 -0.00788879 0.00585776
1911 1000 6 40.6367 16.3961 12.1747 0.000483295 0.00776753 0.00562672
1912 1001 6 88.4957 48.4769 25.7573 0.00562191 -0.00014688 -0.00477124
1913 1001 7 88.6248 47.3233 25.7896 0.0043423 -0.0002609 -0.00372969
1914 1001 6 89.2913 46.4743 26.2148 0.000989947 -0.000789841 0.000468615
1915 1002 6 32.7945 31.1669 27.9767 0.00131506 -0.00294506 -0.00254882
1916 1002 7 31.6408 31.1794 27.8578 0.00110615 0.00113461 -9.32601e-05
1917 1002 6 30.5445 31.3223 27.5069 0.00129402 -0.00433593 -0.00290811
1918 1003 6 69.6974 25.6303 8.52351 0.00219054 -0.000461079 -0.00299389
1919 1003 7 68.7082 25.0293 8.60046 -0.00221591 0.00707154 -0.000806486
1920 1003 6 68.1104 24.404 7.82595 0.00153274 -0.00454186 0.00567634
1921 1004 6 67.9251 50.3763 13.33 0.00565664 -0.00175345 0.00500596
1922 1004 7 68.2807 51.2042 14.0618 0.00151798 1.27702e-05 0.00501853
1923 1004 6 69.3477 51.3265 14.5032 0.00225237 0.0083824 0.000924507
1924 1005 6 43.0131 47.3624 5.97973 0.00111568 -0.00393689 -0.00296852
1925 1005 7 42.2561 46.4907 5.88434 -0.00263896 -0.000840304 -0.00147073
1926 1005 6 41.5899 47.152 5.20196 -0.00387886 0.00367189 0.0041129
1927 1006 6 24.1883 18.1628 13.6287 -0.00252734 0.00362085 0.00194277
1928 1006 7 24.081 18.2958 12.4809 0.000251074 -0.00224014 0.00100401
1929 1006 6 23.1674 18.3663 11.7679 0.00185079 0.00297146 -0.000530287
1930 1007 6 48.2792 10.6551 13.4594 -0.00197013 0.0049567 0.00685147
1931 1007 7 48.1846 10.1472 14.4976 0.00298816 0.0043912 0.00702658
1932 1007 6 49.004 10.4096 15.2777 0.00580659 0.00522036 0.00378708
1933 1008 6 67.4505 17.3737 12.2109 -0.00248011 -0.000230671 -0.00336575
1934 1008 7 67.9507 17.9235 13.1011 -0.000345097 -0.00107452 -0.00404422
1935 1008 6 68.1539 18.77 13.8699 -0.00233915 -0.00416618 -0.000113001
1936 1009 6 24.0888 23.4302 15.822 0.00386136 0.00197846 0.00482861
1937 1009 7 24.1877 24.4567 15.2907 0.00244125 0.000823176 0.00233226
1938 1009 6 23.7758 25.1452 16.13 0.00756475 0.00296702 0.00308835
1939 1010 6 66.9242 39.1273 27.6823 -0.000582206 0.00520696 -0.00305313
1940 1010 7 67.3799 38.9931 28.7407 0.00406134 0.00297011 -0.00533604
1941 1010 6 67.772 39.5041 29.7054 0.00361356 0.000759846 -0.00398323
1942 1011 6 73.2813 28.0334 17.7187 0.000225154 0.0017132 -0.00416819
1943 1011 7 72.385 27.299 17.667 0.0017512 -0.000337162 -0.00150416
1944 1011 6 71.5338 26.6435 17.228 0.00315821 -0.00375276 0.000868037
1945 1012 6 45.5318 40.8993 0.358434 -0.00531332 -0.00404022 -0.000708616
1946 1012 7 64.5007 51.8373 29.4625 -0.00414994 -0.00482308 -0.000297723
1947 1012 6 64.4174 51.91 28.3076 -0.00228528 -0.00699961 -0.000569277
1948 1013 6 89.0241 55.1312 27.9246 0.00304183 -0.000631494 0.00157605
1949 1013 7 88.9709 56.1679 28.4442 -0.00198595 0.000294175 -0.000785914
1950 1013 6 88.8831 56.5131 29.5492 0.00361267 0.00248568 -0.00102589
1951 1014 6 14.4795 4.57973 11.9356 0.00556329 0.00240565 0.000516226
1952 1014 7 14.7013 5.65777 11.57 -0.000647571 0.00499001 0.00436904
1953 1014 6 15.3966 6.56209 11.359 -0.0042231 0.00646094 -0.00110729
1954 1015 6 85.2041 47.1855 27.6574 0.00542768 -0.00229354 -0.00381002
1955 1015 7 85.4284 46.3198 28.4022 0.000921844 -0.00303815 -0.00331858
1956 1015 6 86.1056 45.5441 27.8642 0.00432903 -0.00240895 6.2991e-05
1957 1016 6 53.1508 28.1149 2.02778 -0.00254244 0.000106359 -0.00214692
1958 1016 7 52.9354 27.292 2.81778 -0.00333644 0.00507289 0.00281006
1959 1016 6 53.6065 26.5018 3.33915 -0.00715752 -0.00250259 -0.00375245
1960 1017 6 75.7695 26.9936 12.0656 0.0015236 -0.00130134 -0.000792815
1961 1017 7 21.1891 26.3885 11.3467 -0.00124778 -0.00978691 0.00372718
1962 1017 6 21.9948 25.8664 10.6954 -0.00569205 -0.00332741 -0.00695061
1963 1018 6 83.3148 39.5233 21.2418 0.00240636 -0.000104774 0.00125363
1964 1018 7 83.7312 38.4409 21.2277 0.00527778 0.000981792 0.0026435
1965 1018 6 84.3445 37.5002 20.9304 0.00231802 0.000191113 -0.000961184
ITEM: TIMESTEP
310000
ITEM: NUMBER OF ATOMS
57
ITEM: BOX BOUNDS xy xz yz pp pp pp
0.0000000000000000e+00 1.0131084100000001e+02 2.7630201000000000e+01
0.0000000000000000e+00 5.8491914999999999e+01 1.8420141000000001e+01
0.0000000000000000e+00 3.0080027000000001e+01 1.0634897000000000e+01
ITEM: ATOMS id mol type x y z vx vy vz
1909 1000 6 42.1246 17.5241 12.111 0.00444856 -0.001331 0.00493829
1910 1000 7 41.7149 16.4412 12.1953 0.0005774 -0.000134477 0.00149645
1911 1000 6 40.6386 16.007 12.209 -0.00108769 0.00410936 0.00520963
1912 1001 6 89.7729 47.7146 27.2752 0.00135117 -0.0020186 -0.00219551
1913 1001 7 90.4203 48.657 27.0719 0.00254286 -0.00299461 -0.00292497
1914 1001 6 91.2661 49.3165 27.5139 0.000894323 -0.00165664 -0.00176673
1915 1002 6 30.5186 32.1582 26.6852 -0.000186217 -0.00268181 -0.000252559
1916 1002 7 84.8508 32.8266 26.8775 -0.00523697 -0.00942318 -0.00120105
1917 1002 6 83.9435 33.3959 27.3225 0.00363959 0.0010799 0.00346121
1918 1003 6 66.7415 21.2171 19.8789 0.000270371 -0.00424926 -0.00416832
1919 1003 7 67.1071 21.9008 19.0163 0.00335307 -0.000713139 -5.91071e-05
1920 1003 6 67.2964 21.7031 17.8878 -0.00123359 0.00619299 -0.00203857
1921 1004 6 40.0289 8.2502 10.4771 -0.00787066 0.00236187 0.000726134
1922 1004 7 39.7525 7.70005 11.4612 0.00323613 -0.000980026 0.00197636
1923 1004 6 40.0725 6.62674 11.7676 0.00719772 -0.00179425 -0.00501238
1924 1005 6 45.3146 44.6812 1.7317 -0.00129581 0.00221046 -0.00134179
1925 1005 7 45.0257 45.3171 2.65586 -0.000982657 -0.00513689 0.00381232
1926 1005 6 46.1502 45.5154 2.86334 -0.00126759 0.000827067 -0.000342781
1927 1006 6 21.547 21.6526 18.7133 0.000857075 -0.011176 -0.000872238
1928 1006 7 76.0951 21.7591 19.6231 0.00489225 -0.0022495 0.00124213
1929 1006 6 76.0378 21.2345 20.6573 0.00246196 -0.000279947 0.00210667
1930 1007 6 42.0803 8.9906 13.401 -0.000205532 0.00217929 0.00515627
1931 1007 7 42.9369 9.62536 13.8572 0.00576381 -0.00439829 0.00310018
1932 1007 6 43.1971 9.41816 14.9699 0.00239687 -0.00176406 0.00437833
1933 1008 6 70.7155 17.2802 16.4032 0.000585542 -0.000807168 0.00241567
1934 1008 7 69.9146 17.4572 15.5834 0.00207605 -0.00164884 0.000777766
1935 1008 6 68.8912 17.3791 15.0397 0.00434195 -0.00542408 -0.00294557
1936 1009 6 73.7726 24.4632 21.0743 0.00403596 0.00380165 0.00700432
1937 1009 7 74.4837 25.3461 20.828 0.00699503 9.58705e-05 0.00226501
1938 1009 6 74.679 25.1245 19.705 -0.00311855 0.000135875 0.000497692
1939 1010 6 74.3601 37.753 27.2474 -0.00611425 -0.000453097 0.00409265
1940 1010 7 75.2671 38.1969 27.8185 -0.0028489 -0.000583927 -0.000991405
1941 1010 6 76.4145 38.3654 27.846 -0.00216711 -0.0045231 -0.0052878
1942 1011 6 67.7871 24.9459 16.6718 -0.00288821 0.00230085 -0.00693737
1943 1011 7 68.0614 24.508 15.6334 -0.00289434 -0.00287249 -0.00475694
1944 1011 6 67.9413 24.0995 14.5538 -0.00162015 0.00282142 -0.00705308
1945 1012 6 45.1697 41.1696 0.371413 -0.00172142 -0.00381987 -0.0024892
1946 1012 7 45.3888 41.5668 1.43896 -0.00587428 0.00100414 -0.0034317
1947 1012 6 45.6818 41.2721 2.52212 -0.00498596 0.00641509 -0.00219977
1948 1013 6 65.122 41.9712 3.43502 -0.00517251 0.00331932 -0.00169299
1949 1013 7 66.1238 42.5317 3.26218 -0.00185976 -0.00162195 0.00148375
1950 1013 6 67.08 42.3032 2.6447 -0.00131669 -0.00600007 0.00394481
1951 1014 6 40.465 53.227 20.3635 0.0035278 -0.00351632 0.0034954
1952 1014 7 40.4281 52.1601 20.8165 0.000294624 -0.00368534 0.002834
1953 1014 6 40.8903 51.2416 21.3536 -0.00241795 -0.00552215 0.00202744
1954 1015 6 68.7412 35.4535 1.66759 0.000709198 -0.00245937 0.00182602
1955 1015 7 69.3939 35.4244 0.704506 -0.00531987 0.00282888 -0.00241983
1956 1015 6 69.4971 36.5095 0.302675 -0.00387283 0.00564626 0.00555985
1957 1016 6 70.2255 43.6898 25.8622 -0.000805569 0.0026525 -0.00111495
1958 1016 7 69.4732 43.3202 26.6655 0.00726397 -0.00197955 0.00431114
1959 1016 6 69.2329 43.6724 27.7447 0.00751529 0.00141203 0.00326056
1960 1017 6 72.8673 25.9805 16.9237 0.00112714 -0.0005906 -0.00480864
1961 1017 7 72.0728 25.1373 16.9797 0.00761736 -0.00639047 -5.80028e-05
1962 1017 6 71.2953 24.2829 16.8719 -0.00631064 0.00611005 0.00131864
1963 1018 6 33.7147 40.437 17.0211 0.00220985 0.000511874 0.00261659
1964 1018 7 33.0912 39.4644 16.9176 0.00275902 0.000607903 -0.00159353
1965 1018 6 32.6338 38.4201 17.1402 -0.00150153 0.00216699 -0.00303393
ITEM: TIMESTEP
315000
ITEM: NUMBER OF ATOMS
57
ITEM: BOX BOUNDS xy xz yz pp pp pp
0.0000000000000000e+00 1.0131084100000001e+02 2.7630201000000000e+01
0.0000000000000000e+00 5.8491914999999999e+01 1.8420141000000001e+01
0.0000000000000000e+00 3.0080027000000001e+01 1.0634897000000000e+01
ITEM: ATOMS id mol type x y z vx vy vz
1909 1000 6 38.3168 15.3299 17.7918 -0.00140732 -0.00144124 -0.000634359
1910 1000 7 39.3333 15.046 18.275 -0.00513121 -0.00441827 0.00545015
1911 1000 6 40.205 15.6818 18.7028 -0.00319902 -0.00688765 0.00518297
1912 1001 6 39.4294 47.8916 25.9467 -0.00170935 0.00241508 -0.00275024
1913 1001 7 93.6305 47.8854 26.4222 0.000208018 -5.20498e-05 0.00148906
1914 1001 6 92.9049 48.5037 27.0831 -0.00284003 0.00332155 -0.00501463
1915 1002 6 80.4208 25.719 26.474 -0.00525805 -0.000792021 -0.00301631
1916 1002 7 25.639 25.6531 25.4195 3.27565e-05 -0.00156166 -0.000566712
1917 1002 6 25.9561 25.3693 24.3404 0.00440428 -0.00151696 0.000706289
1918 1003 6 70.0742 20.3772 20.7068 0.00174843 -0.0016635 -0.00186488
1919 1003 7 70.0712 20.0506 19.5938 0.00137741 -0.0010105 -0.00205553
1920 1003 6 69.3391 19.3985 18.9718 0.00248314 -0.00268827 -0.0015981
1921 1004 6 44.2111 10.0594 13.6215 -0.0018381 -0.00122693 -0.00395867
1922 1004 7 45.1894 10.631 13.3692 -0.003463 0.00380365 0.00113892
1923 1004 6 46.273 10.2863 13.6047 -0.0025042 0.00500632 -0.00151292
1924 1005 6 31.6951 10.2203 28.3694 0.00228179 0.000368219 0.00465128
1925 1005 7 31.009 11.0323 28.8299 -0.00567356 0.0008777 -0.00810004
1926 1005 6 31.775 11.847 28.5192 -0.00185148 0.000877703 0.00132375
1927 1006 6 27.7811 12.1939 19.0856 0.0027803 -0.00159176 -0.00161633
1928 1006 7 27.2082 11.5539 19.866 0.00269262 -0.00174493 -0.0018063
1929 1006 6 26.8297 11.7607 20.944 -0.00431883 0.000651566 -0.00472778
1930 1007 6 47.6905 5.18305 8.74124 -0.00541051 -0.000179352 0.00567142
1931 1007 7 47.0241 5.91685 8.13945 -0.00152593 0.00258636 0.00474186
1932 1007 6 46.3273 5.44432 7.33947 -0.00128521 0.00561969 0.00274048
1933 1008 6 66.6555 17.862 17.3443 0.00222131 0.00371851 -9.33356e-05
1934 1008 7 67.2964 17.7061 16.3904 -0.00504426 0.00158966 -0.00462638
1935 1008 6 67.9031 17.1386 15.5788 0.0079477 0.00248939 0.00445658
1936 1009 6 63.5701 19.5518 19.6033 0.00388745 -0.000789536 0.00151918
1937 1009 7 64.5535 18.9364 19.5995 0.00379858 -0.000901458 -0.00339546
1938 1009 6 65.1933 19.5969 20.3086 0.00439597 -0.00584689 0.000672249
1939 1010 6 75.1902 23.844 19.6957 0.00339869 -0.00531366 -0.00384126
1940 1010 7 75.3685 24.8381 19.125 0.00348952 -0.0029813 0.000249478
1941 1010 6 75.1293 25.97 19.0398 0.00216933 -0.00299372 0.0037923
1942 1011 6 65.4023 28.2964 11.3604 -0.00365568 0.00254276 0.000531816
1943 1011 7 64.7908 27.5022 11.9441 -0.00138708 0.000822159 0.000567596
1944 1011 6 64.5477 26.5974 12.6289 0.00139181 -0.00327879 -0.00386445
1945 1012 6 61.6205 55.7154 27.2144 -0.00347231 0.000458619 0.0012227
1946 1012 7 61.2161 56.5499 26.5176 0.00150988 0.0021961 0.000412398
1947 1012 6 60.9736 56.8386 25.4204 0.00469096 0.00313897 -4.26401e-05
1948 1013 6 81.9198 53.8411 27.9886 -0.00484467 -0.000654699 -0.00302327
1949 1013 7 80.8443 53.8481 27.5517 -0.00522766 -0.00232665 -0.00210733
1950 1013 6 79.8142 53.4765 27.9375 -0.00519017 0.000778917 0.000983828
1951 1014 6 65.2549 8.66529 19.2901 -0.00317815 0.00562167 0.00460008
1952 1014 7 65.7878 9.65382 19.0007 0.00436559 0.000272571 0.000221542
1953 1014 6 66.5006 10.5476 19.198 0.000685867 0.00291486 0.00154639
1954 1015 6 72.6738 33.7566 6.13829 0.000336965 0.000932553 0.00146377
1955 1015 7 73.6721 34.3505 6.2107 -0.000177764 0.00239452 -0.0034296
1956 1015 6 73.4179 35.4637 6.42437 -0.000825789 0.00234793 -0.00395784
1957 1016 6 49.8975 7.97556 17.0909 0.00285282 0.00587065 -0.00515738
1958 1016 7 50.8571 7.8567 17.7335 0.000743051 0.00145074 -0.00282459
1959 1016 6 51.9885 7.91988 17.4836 0.00149398 0.00933176 0.00256844
1960 1017 6 68.2077 24.7641 15.3099 -0.00466188 0.000523021 0.0049017
1961 1017 7 68.0414 25.0825 14.2071 -0.009928 0.000506736 0.00569091
1962 1017 6 67.885 25.24 13.0683 0.00324266 0.00214311 0.00410768
1963 1018 6 32.5085 39.3199 18.449 0.00312759 0.0002219 0.00281631
1964 1018 7 32.7561 38.3527 19.0394 -0.000949689 -0.00309948 -0.00091435
1965 1018 6 33.085 37.2663 19.286 0.00391784 -0.00231599 -0.00395432
ITEM: TIMESTEP
320000
ITEM: NUMBER OF ATOMS
57
ITEM: BOX BOUNDS xy xz yz pp pp pp
0.0000000000000000e+00 1.0131084100000001e+02 2.7630201000000000e+01
0.0000000000000000e+00 5.8491914999999999e+01 1.8420141000000001e+01
0.0000000000000000e+00 3.0080027000000001e+01 1.0634897000000000e+01
ITEM: ATOMS id mol type x y z vx vy vz
1909 1000 6 36.9519 14.146 17.754 0.00359983 6.01344e-05 0.0016496
1910 1000 7 36.3123 14.4856 16.8467 0.000816908 -0.000962165 0.00322874
1911 1000 6 35.6757 15.435 16.6453 -0.00152855 -0.00216692 0.00496373
1912 1001 6 39.6852 48.5117 26.6967 -0.00310494 0.00131048 -0.00226538
1913 1001 7 93.8766 48.6981 27.1101 -0.00227371 0.00141309 -0.000161676
1914 1001 6 93.0718 48.2746 27.8301 -0.00238144 -0.000607375 -0.00147039
1915 1002 6 28.4574 27.5648 23.7054 -0.00231564 -0.00137961 0.00676942
1916 1002 7 29.1501 28.2704 24.3118 -0.00316337 0.00260624 0.00309935
1917 1002 6 29.9379 28.7423 25.0203 0.000461216 0.00698006 -0.00384374
1918 1003 6 18.568 18.5016 19.3335 -0.00145993 -0.000981736 0.00272647
1919 1003 7 19.0817 17.5241 18.9783 6.1222e-05 0.00165951 -0.00234255
1920 1003 6 20.12 17.0578 19.2082 -0.000222403 0.000824276 -0.00275582
1921 1004 6 41.9402 11.2751 10.2342 0.000176724 0.00197038 -0.000706424
1922 1004 7 42.1665 11.0005 11.3391 -0.00245863 -0.000460077 -0.000770347
1923 1004 6 42.1182 9.9417 11.8132 -0.00222675 -0.00171367 -0.00354631
1924 1005 6 39.9528 48.7819 3.63193 -0.00310195 0.000533222 0.00166486
1925 1005 7 38.8367 48.4884 3.53205 -0.0034534 0.00442493 -0.005845
1926 1005 6 39.1529 47.4174 3.21602 -0.00505266 0.0035545 -0.00449556
1927 1006 6 26.7596 11.8965 12.393 -0.000732594 -0.000865674 -0.00168171
1928 1006 7 27.1906 11.0599 13.0719 -0.00118383 -0.00148703 -0.00216095
1929 1006 6 27.7011 10.0399 12.8546 -0.0025275 -0.00203747 -0.00273389
1930 1007 6 44.5138 4.04529 10.1186 -0.00155288 -0.0022154 0.000143586
1931 1007 7 43.8013 3.13064 10.0978 0.00133812 -0.00465278 0.00829198
1932 1007 6 70.4236 51.1051 10.6628 -0.00417407 0.00142887 -0.00280376
1933 1008 6 67.969 20.8128 19.7779 0.00362632 -0.00731533 0.0078967
1934 1008 7 67.2308 20.0308 19.3438 0.00460347 -2.59642e-05 -0.00689602
1935 1008 6 66.8421 18.9973 18.9837 -0.0045257 0.000244494 0.00218213
1936 1009 6 18.4615 13.8867 17.7971 -0.00650806 -0.00456721 0.00164742
1937 1009 7 17.4559 14.4639 17.7606 -0.000955538 0.00458731 -0.00655291
1938 1009 6 17.8245 15.5091 18.1069 0.00541007 0.000774035 -0.00181886
1939 1010 6 22.9001 17.9729 21.3686 -0.00358214 0.00559296 0.000393774
1940 1010 7 23.1906 17.8324 20.2542 0.00177028 0.00519857 0.00183884
1941 1010 6 23.7661 17.2022 19.4686 0.00135801 0.00199898 0.00410338
1942 1011 6 75.0366 22.2654 18.1805 0.00360669 -0.000530311 0.0022415
1943 1011 7 20.5554 21.8826 18.9495 0.00555305 -0.000495848 0.000286289
1944 1011 6 21.433 21.2752 19.4053 -0.000192711 -0.00801441 0.00133082
1945 1012 6 58.8439 55.1552 27.2319 0.00176578 -0.00625247 0.00397029
1946 1012 7 59.1818 56.1771 27.6643 -0.000783972 -0.00407288 0.000811212
1947 1012 6 58.926 57.0238 28.415 -0.00416947 -0.00123444 -0.00354385
1948 1013 6 84.7169 55.961 25.7372 -0.00565727 -0.00225007 0.00148149
1949 1013 7 85.8239 56.0545 25.4005 -0.0068581 0.000875227 -0.00159873
1950 1013 6 86.8418 56.0302 25.9584 -0.00497953 -0.00187835 -0.00514596
1951 1014 6 67.8272 17.8138 22.0968 -0.00353065 -0.00995993 -0.00473972
1952 1014 7 66.6737 17.8945 22.1867 -0.00307103 -0.00516344 -0.00314659
1953 1014 6 65.6507 17.6661 22.6837 -0.00231206 0.00720773 0.00410245
1954 1015 6 73.9059 31.8861 4.31572 0.00550656 -0.00313983 0.00217759
1955 1015 7 73.3242 30.8843 4.20349 0.00304111 -0.00143953 -0.000220639
1956 1015 6 72.49 30.8562 5.01151 0.00215629 -0.00075522 -0.00111027
1957 1016 6 82.6328 47.4046 18.2195 0.00559259 0.00375226 0.00122757
1958 1016 7 81.9001 48.121 18.7651 0.000913639 -0.00194929 0.00243122
1959 1016 6 80.8326 48.5009 18.5145 0.000542921 -0.00432074 0.000415072
1960 1017 6 68.5357 24.3353 18.2579 0.00306197 -0.00430979 0.00319078
1961 1017 7 69.5715 24.815 18.0523 -0.00113177 0.00476494 0.00323663
1962 1017 6 70.5443 25.3409 17.7012 0.00128916 -0.00574351 -0.0057965
1963 1018 6 32.4344 39.4446 18.3977 -0.00119227 0.000765379 0.00101744
1964 1018 7 32.0828 38.7079 19.2217 -0.00738901 0.00247153 -0.000101274
1965 1018 6 31.6689 37.7578 19.7464 0.00354824 -0.00232074 -0.000151794
ITEM: TIMESTEP
325000
ITEM: NUMBER OF ATOMS
57
ITEM: BOX BOUNDS xy xz yz pp pp pp
0.0000000000000000e+00 1.0131084100000001e+02 2.7630201000000000e+01
0.0000000000000000e+00 5.8491914999999999e+01 1.8420141000000001e+01
0.0000000000000000e+00 3.0080027000000001e+01 1.0634897000000000e+01
ITEM: ATOMS id mol type x y z vx vy vz
1909 1000 6 37.7565 14.5017 17.7398 -0.00208751 -0.0027879 0.00263162
1910 1000 7 38.8083 14.9612 17.913 -0.00202764 -6.40815e-05 -0.00495974
1911 1000 6 39.1607 16.0209 18.2294 -0.00278189 -0.00124042 -0.000179147
1912 1001 6 40.1744 48.2804 25.8893 -0.000257929 -0.000458789 0.000714229
1913 1001 7 39.1168 48.4717 26.3292 -0.000282276 -0.00345003 0.00195599
1914 1001 6 93.5092 47.9706 26.9131 -0.000163329 -0.0073127 -0.00118228
1915 1002 6 31.914 29.7401 24.397 -0.000826645 -0.000648135 -0.0020765
1916 1002 7 31.0223 29.013 24.2497 -0.00279381 0.000207179 0.00561428
1917 1002 6 29.9839 28.5003 24.1841 -0.00465603 0.00393659 0.00594473
1918 1003 6 20.1113 15.7487 16.7143 -0.000813678 -0.00173726 -0.00221191
1919 1003 7 18.9645 15.7089 16.883 -0.000174765 -0.00491892 0.00137929
1920 1003 6 18.2346 14.8306 17.0936 0.0025286 -0.00727549 0.000919782
1921 1004 6 40.2247 8.47169 9.97481 -0.00203521 -0.00277284 -0.00586876
1922 1004 7 40.8934 8.65795 10.9051 -0.00237912 0.00512013 -0.00720186
1923 1004 6 42.0305 8.44067 10.995 -0.003442 0.00118991 -0.00325816
1924 1005 6 13.8967 12.1362 1.0203 0.00200684 0.000486194 -0.00650328
1925 1005 7 14.5883 12.7596 1.70962 -0.00553944 -0.00192117 0.00324473
1926 1005 6 14.5666 11.9046 2.49421 -0.00780316 -0.00793172 -0.00336703
1927 1006 6 25.7642 11.5605 14.1598 0.000694253 0.00978857 0.00112355
1928 1006 7 26.6594 11.3452 14.8662 0.00108732 0.00181841 -0.00180422
1929 1006 6 27.6986 11.8422 15.0114 0.000987614 0.000464923 0.00354137
1930 1007 6 41.1368 3.95392 11.1892 0.00121634 -0.00508222 -0.00204101
1931 1007 7 40.0195 4.26119 11.2344 0.000961759 -0.00581114 -0.00337945
1932 1007 6 39.7946 5.33863 11.6049 -0.000378434 -0.00715631 -0.000281066
1933 1008 6 69.0803 23.9157 14.6698 0.00117396 -0.00170142 -0.00577959
1934 1008 7 68.15 23.4011 15.1331 0.00468244 -0.0049886 -0.00238587
1935 1008 6 67.3392 23.1481 15.9252 0.00513904 -0.00371425 -0.00151146
1936 1009 6 18.5522 13.3963 13.4202 0.0077335 -0.0010032 -0.00690631
1937 1009 7 18.9336 13.8287 14.4269 0.000730176 -0.00214787 -0.00376175
1938 1009 6 19.3093 14.8637 14.0586 0.000112056 -0.000355865 0.000643879
1939 1010 6 68.3909 17.9538 20.0748 -0.000273297 -0.00313101 0.00134052
1940 1010 7 67.4715 18.2325 20.7252 -0.00557644 -0.00658798 -0.00467378
1941 1010 6 66.7663 17.9327 21.5961 0.00104461 -0.000497725 0.00278439
1942 1011 6 75.6808 26.6293 20.1862 -0.00709299 0.000579249 -0.002215
1943 1011 7 75.737 26.7923 19.0392 -0.00251601 -0.000579605 -0.00215513
1944 1011 6 76.11 27.1674 18.0062 -1.38452e-05 0.000664426 -0.00080025
1945 1012 6 38.0746 8.78512 24.0818 -0.00283382 0.001361 0.00146419
1946 1012 7 66.1695 55.599 24.2852 0.000611128 0.00312743 0.00265313
1947 1012 6 65.9486 54.4667 24.4079 0.00531774 0.00157449 -0.00320628
1948 1013 6 53.8675 13.2792 25.4149 0.000790097 -0.000402469 -0.00319879
1949 1013 7 54.7565 12.9654 26.0924 0.000393806 0.00277059 -0.00120924
1950 1013 6 55.9107 12.9833 25.9687 0.000644772 0.00816767 0.00191548
1951 1014 6 35.6465 11.3136 4.81528 -0.00198765 0.0124385 -0.00109295
1952 1014 7 35.457 11.4766 3.68281 -0.000860758 0.00587489 -0.00222638
1953 1014 6 35.2831 11.1143 2.59458 -0.00360348 -0.000493084 0.0003325
1954 1015 6 69.5225 28.3486 2.27607 0.00200294 0.00586489 0.0019635
1955 1015 7 70.2152 27.4731 2.60484 -0.000678282 0.00364307 0.00169681
1956 1015 6 71.1613 27.9263 3.104 0.00104058 0.000613117 0.00118971
1957 1016 6 78.1539 37.5646 19.1695 0.00469741 -0.00387849 -0.00296894
1958 1016 7 78.9591 37.4016 19.9896 0.00316634 0.00180221 -0.000336703
1959 1016 6 79.8714 36.689 20.0711 0.00562782 0.00548978 0.00435642
1960 1017 6 73.9913 25.1777 15.5707 0.00305654 0.0023854 -0.000802349
1961 1017 7 73.8473 26.3286 15.5677 -0.00328719 0.0016102 0.00621864
1962 1017 6 73.5642 27.4503 15.4806 -0.00404447 0.00123538 0.00385173
1963 1018 6 82.7928 35.6807 20.941 -0.000809214 -0.00159589 -0.00126687
1964 1018 7 83.7669 36.2857 20.7659 0.00377216 -0.00751754 0.00376006
1965 1018 6 84.8152 36.5966 20.3739 0.00154699 -0.00722699 -0.00195916
ITEM: TIMESTEP
330000
ITEM: NUMBER OF ATOMS
57
ITEM: BOX BOUNDS xy xz yz pp pp pp
0.0000000000000000e+00 1.0131084100000001e+02 2.7630201000000000e+01
0.0000000000000000e+00 5.8491914999999999e+01 1.8420141000000001e+01
0.0000000000000000e+00 3.0080027000000001e+01 1.0634897000000000e+01
ITEM: ATOMS id mol type x y z vx vy vz
1909 1000 6 39.5282 15.2061 18.8464 0.000456716 0.0017463 -0.000616163
1910 1000 7 40.0346 14.6085 19.7031 0.000611914 0.00278552 1.70069e-05
1911 1000 6 41.1221 14.5841 20.1081 0.00150928 0.000569272 -0.0025262
1912 1001 6 40.4221 48.394 25.9789 -0.00068588 -0.00243069 -0.00104726
1913 1001 7 39.2929 48.6257 26.1198 0.000832552 0.00173505 0.00427073
1914 1001 6 93.5721 48.218 26.5851 -0.00178425 -0.00238436 -0.0048579
1915 1002 6 73.829 32.4507 26.8398 0.00129042 0.00370729 -0.0034433
1916 1002 7 73.9299 33.4515 27.4175 0.00234444 0.00317225 -0.00270054
1917 1002 6 73.8357 34.5338 27.8238 0.000642374 0.00172963 0.000747541
1918 1003 6 22.0261 15.8334 11.6763 -0.000734673 0.00313113 -0.00184871
1919 1003 7 22.4143 15.1645 10.8119 0.00039539 0.00111454 0.000219391
1920 1003 6 21.9092 14.3319 10.1794 -0.00259689 0.00842196 -0.00701053
1921 1004 6 61.739 47.1625 5.56993 0.00425431 0.000700067 0.00510971
1922 1004 7 62.8924 47.0358 5.53753 0.00390559 -0.000872091 -0.00115822
1923 1004 6 63.6811 47.8864 5.48533 0.00515129 -0.00157215 0.00625631
1924 1005 6 25.0242 17.7287 18.0964 -0.00656827 -0.0062164 -0.000508215
1925 1005 7 24.6833 18.0149 19.1659 0.00038526 -0.00676482 0.00185486
1926 1005 6 25.6243 18.6847 19.28 -0.00333273 -5.19144e-06 -0.00716525
1927 1006 6 55.5741 48.5493 11.3886 0.000380685 -0.00283184 -0.000131002
1928 1006 7 56.4181 48.7141 10.6094 -0.00319564 0.00152102 -0.00308444
1929 1006 6 57.5035 48.3134 10.5122 -0.00306167 0.00341345 -0.00939094
1930 1007 6 69.0687 48.7712 14.4302 0.00216942 -0.00207581 0.00274057
1931 1007 7 68.66 49.847 14.287 0.00386272 -0.00179625 9.13911e-06
1932 1007 6 68.4641 50.1837 13.1929 4.77168e-05 -0.00587901 -0.000564229
1933 1008 6 67.9986 19.7873 16.5029 -0.00197682 0.00133174 0.000633045
1934 1008 7 67.4969 18.8886 15.9685 0.000103157 0.00159322 -0.00175949
1935 1008 6 67.4016 17.9607 15.2765 0.00354829 0.00016414 -0.000317431
1936 1009 6 21.5771 16.0878 15.9574 0.00460014 -0.00154941 0.000232685
1937 1009 7 22.2731 16.6126 15.1919 0.00352525 0.00256675 0.00207719
1938 1009 6 22.8588 17.3082 15.9139 0.00362993 -0.000367068 0.00481885
1939 1010 6 71.1329 16.8776 17.8485 0.00463085 -0.000705497 0.00239284
1940 1010 7 70.6631 17.1318 18.8783 5.01803e-05 0.00111584 -0.000146764
1941 1010 6 70.4841 16.8031 19.9763 -0.00573786 0.00257221 -0.000653855
1942 1011 6 76.0587 27.3143 20.3221 -0.00239498 0.0007231 0.00242078
1943 1011 7 75.8156 28.045 19.4547 -0.00155086 -0.00141746 0.000380954
1944 1011 6 75.9058 28.9433 18.7255 -3.19627e-05 -0.00405652 -0.00268203
1945 1012 6 38.8888 9.61666 24.312 -0.00196756 0.00155171 -0.00195378
1946 1012 7 37.835 9.50663 23.8401 -0.00357024 -0.000720841 0.00215467
1947 1012 6 37.1672 9.77581 22.9304 -0.0082676 -0.000544581 0.00565492
1948 1013 6 38.4327 5.65164 0.968273 0.000851835 -9.8895e-05 0.000628411
1949 1013 7 39.3666 5.08137 1.35583 0.000943456 0.000120527 0.000730494
1950 1013 6 40.5075 5.1761 1.16269 0.00117865 0.00239231 0.00323404
1951 1014 6 27.4513 23.1672 1.18147 -0.00174923 -0.00213774 -0.00185012
1952 1014 7 27.9896 22.3538 0.554034 -0.000782602 -0.000120367 -0.00363599
1953 1014 6 46.6047 32.3829 29.6641 -0.00871327 -0.0062174 -0.00142262
1954 1015 6 73.3225 37.6841 8.89413 -0.00240824 -0.00201598 0.00325217
1955 1015 7 73.171 36.8576 8.08893 0.00124359 -0.00170589 0.00224676
1956 1015 6 73.288 37.3454 7.0411 -0.000402856 -1.68665e-05 0.00284936
1957 1016 6 83.9689 40.5633 20.4894 -0.00384075 0.000582952 0.00124172
1958 1016 7 83.4829 39.5552 20.7981 -0.00226009 0.000128671 0.00224658
1959 1016 6 83.6711 38.456 20.4772 -0.00431256 0.000661335 -0.000781152
1960 1017 6 24.1 21.7817 14.6831 0.00508073 -0.00152979 0.00164316
1961 1017 7 24.3448 21.1066 13.7723 -0.00567087 -0.00498178 0.00131186
1962 1017 6 24.6155 20.3114 12.972 -0.000183649 -0.00390568 0.00209864
1963 1018 6 28.3733 33.6676 19.1636 0.00554434 0.000364671 0.000279301
1964 1018 7 28.1398 34.327 20.0889 -0.00333832 0.00213004 -0.00321987
1965 1018 6 83.2597 35.2552 20.7729 -0.000641199 0.00276244 -0.00352367
ITEM: TIMESTEP
335000
ITEM: NUMBER OF ATOMS
57
ITEM: BOX BOUNDS xy xz yz pp pp pp
0.0000000000000000e+00 1.0131084100000001e+02 2.7630201000000000e+01
0.0000000000000000e+00 5.8491914999999999e+01 1.8420141000000001e+01
0.0000000000000000e+00 3.0080027000000001e+01 1.0634897000000000e+01
ITEM: ATOMS id mol type x y z vx vy vz
1909 1000 6 36.7634 13.9077 17.6152 0.00122192 -0.00310897 0.0012394
1910 1000 7 36.2938 14.2785 16.6205 0.00249344 0.00397946 0.00328133
1911 1000 6 36.7048 14.3546 15.5377 -0.00231063 -0.00572945 0.000775363
1912 1001 6 40.2194 48.6837 26.1355 -0.000590441 -0.000338894 0.000399803
1913 1001 7 39.3729 49.0239 26.854 -0.00234417 0.00168563 -0.00262431
1914 1001 6 93.5125 48.8683 27.1091 -0.000951266 -0.00358168 0.000285419
1915 1002 6 66.418 30.9862 5.43592 0.00769175 -0.00181894 -0.00366227
1916 1002 7 65.5976 30.3686 4.8964 0.00249513 -0.00269915 0.00524675
1917 1002 6 64.6159 29.9547 4.43799 0.000632022 0.00311261 0.00398926
1918 1003 6 18.5999 15.9381 13.7815 0.00227548 -0.00249018 0.0019251
1919 1003 7 19.3427 15.5774 14.5961 0.00263498 0.00566144 0.00520595
1920 1003 6 19.2016 14.9418 15.5576 0.00548389 0.00352871 0.00421437
1921 1004 6 61.0561 46.2845 7.17031 -0.00496833 -0.00224681 0.000744372
1922 1004 7 62.1772 46.3555 7.4628 -0.00710845 0.00616647 0.00690531
1923 1004 6 63.0498 46.7052 6.78112 -0.00407461 -0.00022118 0.0075118
1924 1005 6 24.6221 17.7664 12.5636 -0.00397214 -0.0015871 -0.00305
1925 1005 7 24.4482 18.4331 13.4949 0.000663065 0.00213212 -0.00484689
1926 1005 6 23.3814 18.6807 13.1109 0.000492335 0.00439085 -0.002916
1927 1006 6 26.4853 7.00275 8.81193 0.00136024 -0.000429065 0.00189124
1928 1006 7 25.5582 6.33982 8.59355 0.000903492 0.00204405 -0.00367709
1929 1006 6 24.4382 6.41149 8.89123 -0.000907513 0.00564556 -0.0113579
1930 1007 6 69.9441 49.5879 10.8789 0.000465045 0.00184174 0.000442821
1931 1007 7 69.8562 48.6891 11.6063 0.000269561 0.000528461 -0.00120354
1932 1007 6 70.6418 48.6366 12.46 8.6414e-05 -0.00105373 -0.00113226
1933 1008 6 15.8915 16.7976 12.1737 0.00304516 -0.000286502 0.00240616
1934 1008 7 16.4622 17.7336 12.5521 -0.00122978 0.0025297 0.0018873
1935 1008 6 16.918 18.8016 12.5302 0.000321775 0.00179868 -0.00147383
1936 1009 6 24.1082 21.1047 15.1251 -0.00100327 0.0014427 -0.00374805
1937 1009 7 24.1464 22.2608 15.0377 -0.00294369 0.00162788 -0.00214623
1938 1009 6 24.6638 22.3558 14.0025 0.00447497 0.00396637 0.00177564
1939 1010 6 7.27511 10.4433 1.17353 -0.00982294 -0.00656821 -0.00373163
1940 1010 7 7.67218 9.73315 2.00048 -0.000700537 -0.00113647 -0.00344712
1941 1010 6 8.59033 9.34279 2.59229 0.00442496 0.0102954 -0.00385844
1942 1011 6 74.3718 20.0538 21.2251 0.000521077 0.00340503 0.00395804
1943 1011 7 19.6577 19.212 20.6437 -0.00371695 0.00450025 -0.00161029
1944 1011 6 20.4762 18.6589 20.0346 -0.00289982 0.00171378 0.0020177
1945 1012 6 36.4928 13.5003 24.7979 -0.000804542 0.0025489 -0.00426231
1946 1012 7 36.8847 14.0366 25.7488 0.00157762 -0.00118735 -0.00313664
1947 1012 6 37.6226 14.8342 26.1553 -0.00390921 0.00374573 -0.00285443
1948 1013 6 40.4049 6.42526 4.92408 -0.00455839 -0.00480271 0.00612781
1949 1013 7 40.889 5.77068 4.09659 -0.00215037 0.00132623 0.00268842
1950 1013 6 40.4717 5.17574 3.19116 -0.000570885 -0.000207476 0.00296818
1951 1014 6 34.7117 34.7037 25.0631 0.00260986 0.00377905 -0.00500305
1952 1014 7 33.6928 34.1517 25.1085 0.00271368 0.00442052 0.00512914
1953 1014 6 33.0143 33.237 25.3294 0.00599314 0.000839853 0.000374802
1954 1015 6 73.8168 38.0664 9.81251 0.000635907 0.00573768 -0.00135913
1955 1015 7 73.4401 37.7885 8.74697 -0.000794749 1.47373e-05 0.000638902
1956 1015 6 74.1673 38.2563 7.97115 -0.000278368 -0.00648038 -0.00279378
1957 1016 6 36.7617 36.0326 20.6008 0.0012201 0.000809712 0.00245887
1958 1016 7 36.1554 36.167 21.5816 0.000874633 0.00128051 0.00218083
1959 1016 6 35.11 35.7955 21.9218 0.00164498 -0.000333984 0.00278477
1960 1017 6 72.7358 23.7484 12.2378 -0.00722737 0.000349743 0.0115419
1961 1017 7 72.2222 24.6221 11.6737 -0.00645225 -0.00375498 0.00447908
1962 1017 6 71.7972 25.448 10.9785 0.00461077 -0.000439445 0.00165326
1963 1018 6 83.3602 34.7113 20.467 -0.00598431 -0.000907418 0.00250034
1964 1018 7 28.0316 33.8744 19.6669 0.000604719 0.00397353 -0.00316604
1965 1018 6 27.6254 33.1882 18.8222 0.00218471 2.02527e-05 -0.000714365
ITEM: TIMESTEP
340000
ITEM: NUMBER OF ATOMS
57
ITEM: BOX BOUNDS xy xz yz pp pp pp
0.0000000000000000e+00 1.0131084100000001e+02 2.7630201000000000e+01
0.0000000000000000e+00 5.8491914999999999e+01 1.8420141000000001e+01
0.0000000000000000e+00 3.0080027000000001e+01 1.0634897000000000e+01
ITEM: ATOMS id mol type x y z vx vy vz
1909 1000 6 35.8256 14.8172 14.0182 0.00342992 0.00223859 -0.00356228
1910 1000 7 36.9384 14.5706 14.2378 0.00195769 -0.000784525 0.000503004
1911 1000 6 37.9217 14.7973 13.6641 0.00460815 -0.00402557 0.00376498
1912 1001 6 39.7927 48.3718 26.0174 0.00237342 -0.00204441 -0.00164814
1913 1001 7 39.1346 47.5179 26.449 0.00189315 -0.00126633 -0.000841242
1914 1001 6 93.3117 47.1042 26.4791 0.00190966 -0.00135844 -0.00151416
1915 1002 6 74.5228 36.0695 5.15762 -0.000639512 -0.00313395 -0.00119938
1916 1002 7 75.0323 35.2582 4.50377 0.00384349 -0.000755822 -0.000656943
1917 1002 6 75.3517 34.2853 3.95893 0.00380956 0.0025615 -0.00660034
1918 1003 6 29.0322 16.5118 17.0196 -0.00196524 0.000902042 -0.000169015
1919 1003 7 28.1373 16.447 16.2846 -0.00420795 0.00855641 0.00188727
1920 1003 6 27.0229 16.1562 16.4324 -0.00232485 0.000917611 0.00105195
1921 1004 6 48.3586 14.848 28.5047 -0.00179277 0.000158094 0.00171258
1922 1004 7 49.3702 14.4771 28.073 -0.00221176 0.00235401 -0.00115535
1923 1004 6 49.7666 13.3857 28.078 0.00151553 0.00371498 0.000440188
1924 1005 6 18.6598 16.3018 17.3012 0.00230527 -0.00601973 0.00056346
1925 1005 7 17.8124 15.6024 17.6683 -0.00339107 -0.000268672 -0.00162932
1926 1005 6 18.5119 14.688 17.5217 -0.00989104 -0.00521936 -0.00176309
1927 1006 6 26.2008 10.3691 15.9191 0.00525262 -0.00381295 -0.0020542
1928 1006 7 25.3649 9.9079 15.2594 0.000331727 -0.00258196 0.00332031
1929 1006 6 24.2265 10.1119 15.1557 0.00146015 0.00453864 0.00494011
1930 1007 6 67.6024 49.5662 12.4802 -0.000970911 0.000306939 0.00467958
1931 1007 7 67.298 50.5477 13.0177 -0.00259538 0.00177588 0.00107675
1932 1007 6 67.433 51.5305 12.4139 0.00180124 0.000380693 -0.000211213
1933 1008 6 23.7754 17.4054 15.7613 -0.0006574 0.0013713 -0.0015864
1934 1008 7 22.7284 16.9846 15.4936 -0.00536137 0.00997521 0.00328387
1935 1008 6 21.8367 16.6531 14.8273 -0.00364952 -0.000739097 0.00632379
1936 1009 6 23.1747 22.2158 18.6985 -0.00307514 0.00285237 -0.00604772
1937 1009 7 24.2566 22.3639 18.3069 -0.000300945 0.00566841 0.00268175
1938 1009 6 24.2194 23.5004 18.0721 -0.00347045 0.00419245 -0.0039588
1939 1010 6 63.4285 19.5925 3.83746 0.00520695 -0.0060637 -0.00342097
1940 1010 7 62.2827 19.4584 3.71459 0.00459199 -0.000567509 -0.00368586
1941 1010 6 61.4146 18.7909 3.33192 0.00113627 -0.000103039 0.00334335
1942 1011 6 69.5573 22.933 19.3607 0.00432121 0.00292989 0.000285188
1943 1011 7 70.0122 21.8732 19.4843 -0.00489948 -0.00154497 -0.00414868
1944 1011 6 70.2898 20.8524 19.9616 -0.0010236 0.00018601 -0.00270049
1945 1012 6 35.5431 14.7158 25.8229 -0.000685309 0.00214073 -0.00340225
1946 1012 7 36.6107 14.9401 26.2172 -0.0017155 -0.0033413 0.00250474
1947 1012 6 37.7438 14.7499 26.0561 -0.000901852 0.00515321 -0.00179921
1948 1013 6 39.7027 6.90765 4.04488 0.00357695 0.00131658 0.00267252
1949 1013 7 40.2002 5.86921 3.89739 0.00262321 0.00126041 -0.00014923
1950 1013 6 39.8525 4.77562 4.07367 0.0041606 0.00136958 0.00356065
1951 1014 6 67.0451 29.4469 8.15336 1.13528e-05 0.00601898 0.00556834
1952 1014 7 67.7448 28.8398 8.85108 0.0033448 0.00557208 0.00183662
1953 1014 6 68.2589 28.6114 9.86565 -0.00125848 -0.00234686 0.00238599
1954 1015 6 77.3313 34.5695 13.8268 0.000718426 -0.000654035 0.00966199
1955 1015 7 76.5 33.7557 13.8566 0.00152433 -0.00165747 0.00475301
1956 1015 6 76.4264 33.2727 12.8027 0.0105084 -0.00393946 0.0051715
1957 1016 6 33.6074 36.5952 15.0567 -0.00296216 0.00199379 -0.00401153
1958 1016 7 34.0303 37.5608 15.5431 0.00131294 0.00210742 -0.00795385
1959 1016 6 33.5272 38.5047 15.993 0.00530072 0.00280412 -0.00495695
1960 1017 6 20.9413 15.2443 10.6343 0.00116628 -0.00305861 -0.00162263
1961 1017 7 20.2635 15.7755 11.4114 -0.00384004 -0.00602695 -0.00396039
1962 1017 6 19.5906 16.4366 12.0869 0.00516094 -0.00299932 0.00204314
1963 1018 6 81.7755 34.537 19.3009 0.00153141 -0.00130721 -0.00503375
1964 1018 7 80.673 34.4331 18.9556 0.0018551 0.00201678 -0.007068
1965 1018 6 79.7218 34.0571 18.405 0.000473989 3.30809e-05 -0.00332777
ITEM: TIMESTEP
345000
ITEM: NUMBER OF ATOMS
57
ITEM: BOX BOUNDS xy xz yz pp pp pp
0.0000000000000000e+00 1.0131084100000001e+02 2.7630201000000000e+01
0.0000000000000000e+00 5.8491914999999999e+01 1.8420141000000001e+01
0.0000000000000000e+00 3.0080027000000001e+01 1.0634897000000000e+01
ITEM: ATOMS id mol type x y z vx vy vz
1909 1000 6 34.1073 16.8691 14.714 0.000681729 0.00401505 -0.00877969
1910 1000 7 32.9966 16.8047 15.0451 0.00274391 0.00796241 -0.00109424
1911 1000 6 32.016 17.2316 14.5941 -0.000184687 0.00170719 -0.000647533
1912 1001 6 39.0968 47.3212 26.3122 -0.00106951 -0.00145204 0.000128316
1913 1001 7 93.7061 47.7667 27.1643 -7.70804e-05 -0.00175935 0.00104733
1914 1001 6 92.6207 47.8289 27.5688 -0.000389208 0.0021678 -0.000393886
1915 1002 6 31.3173 29.101 5.76853 0.0041687 0.00309346 -0.00155071
1916 1002 7 30.3363 29.7036 5.62746 0.00255117 0.000649412 -0.00074239
1917 1002 6 29.5063 30.4495 5.31103 0.00190026 0.00190388 0.00392219
1918 1003 6 25.3027 9.5791 17.9142 -0.00260067 -0.00271096 -0.00306322
1919 1003 7 26.0756 9.60299 17.0497 -0.0035431 -0.0028622 -0.00391004
1920 1003 6 26.3108 10.3932 16.232 0.000341223 8.05472e-05 5.0716e-05
1921 1004 6 32.855 2.15429 2.83476 0.00342068 0.000383597 -0.00267208
1922 1004 7 31.7165 2.02413 3.02036 0.00329437 -0.00125031 -0.0045928
1923 1004 6 30.8867 2.80867 2.8103 0.00364317 0.00128327 0.00349171
1924 1005 6 72.8407 21.1298 19.9194 -0.00378372 -0.00534529 0.00190625
1925 1005 7 73.1996 20.0675 20.2108 0.00294529 -0.00238261 0.00441794
1926 1005 6 74.2307 20.5057 20.5138 0.00160213 0.0042547 -0.000609991
1927 1006 6 28.2635 11.7386 12.5566 0.000932984 0.00569394 0.00124494
1928 1006 7 29.191 11.0757 12.7734 0.000203428 0.00409258 -0.000530856
1929 1006 6 29.4397 10.2965 13.5975 -3.42073e-05 0.00277807 -0.00170197
1930 1007 6 40.1319 8.17084 16.8049 0.00280678 0.00135268 0.000708564
1931 1007 7 41.1826 8.3862 16.364 0.00234277 0.00372173 0.000759938
1932 1007 6 41.2236 9.10986 15.4566 0.000470713 0.0016606 -0.000968478
1933 1008 6 25.6066 21.7639 11.0582 -0.000470378 -0.00309483 0.00434208
1934 1008 7 24.9321 20.9041 11.4466 -0.00282838 -0.00398229 -0.00171759
1935 1008 6 24.391 19.8764 11.4543 0.000791005 -0.00591435 -0.00522302
1936 1009 6 73.8105 24.908 21.7337 -0.00276235 0.00915035 -0.00452236
1937 1009 7 73.1614 24.0726 21.2576 0.00330189 0.00359415 -0.00304112
1938 1009 6 72.5497 24.7127 20.5064 -0.00227499 -0.00198276 -0.0032516
1939 1010 6 18.6973 13.5489 8.10318 0.005815 9.58081e-05 -0.000951711
1940 1010 7 18.1341 13.5171 7.08943 -0.000462562 0.000771149 0.00251448
1941 1010 6 17.9187 12.9312 6.11167 -0.000411161 0.00502713 -4.67475e-05
1942 1011 6 71.6752 26.8296 17.4641 0.00537911 -0.000831487 0.000621079
1943 1011 7 70.9394 26.4832 16.6371 0.00206925 -0.00170304 0.00393128
1944 1011 6 69.9803 26.4143 15.9872 0.00180617 0.00198892 0.00392813
1945 1012 6 40.8681 14.4076 30.0005 0.000238433 -0.00322766 0.00318267
1946 1012 7 21.863 4.19148 0.830285 -0.0016727 0.000359023 0.000303031
1947 1012 6 20.923 4.06267 1.49798 0.00243455 -0.00346002 0.00534832
1948 1013 6 62.2347 14.8074 27.9185 0.00281722 0.000602753 -0.00349717
1949 1013 7 61.6766 14.1863 28.725 0.00502745 0.00183269 -0.00102019
1950 1013 6 60.8941 14.4437 29.5431 -0.00123097 0.00100896 -0.00674689
1951 1014 6 59.0027 35.216 12.903 0.00942536 0.00453166 -0.00284646
1952 1014 7 58.8045 35.7917 13.89 0.00445232 0.00347624 -0.00322934
1953 1014 6 58.613 35.8632 15.032 -0.00342662 0.00212015 -0.00446574
1954 1015 6 79.3186 41.2209 14.7682 -0.00539147 -0.000829937 -0.000419551
1955 1015 7 79.9153 40.5146 15.475 0.00875547 0.00249189 -0.0090444
1956 1015 6 79.6086 39.4195 15.2379 0.00356282 0.00141318 0.00265393
1957 1016 6 82.9914 42.6427 13.7818 -0.00475093 0.00121072 0.00278492
1958 1016 7 82.7175 43.7268 14.0938 -0.00125079 0.00184253 0.00366269
1959 1016 6 82.7737 44.297 15.1029 -0.00262684 -0.000187926 0.00488644
1960 1017 6 18.3032 20.2518 7.79581 -0.00325131 -0.00170771 -0.00253565
1961 1017 7 18.2383 21.2623 8.36153 -0.00207162 -0.00360588 0.000990289
1962 1017 6 18.0138 22.2369 8.94951 -0.000770799 -0.00573381 0.00501417
1963 1018 6 29.5658 31.2894 18.5719 0.00695243 -0.0010961 -0.00501684
1964 1018 7 30.5405 31.5866 19.126 0.00786992 -0.000647382 -0.00687124
1965 1018 6 31.4239 32.217 19.5401 0.00519864 0.000961917 -0.00362299
ITEM: TIMESTEP
350000
ITEM: NUMBER OF ATOMS
57
ITEM: BOX BOUNDS xy xz yz pp pp pp
0.0000000000000000e+00 1.0131084100000001e+02 2.7630201000000000e+01
0.0000000000000000e+00 5.8491914999999999e+01 1.8420141000000001e+01
0.0000000000000000e+00 3.0080027000000001e+01 1.0634897000000000e+01
ITEM: ATOMS id mol type x y z vx vy vz
1909 1000 6 35.4067 22.1211 11.2058 0.00246996 -0.000114307 -0.00243021
1910 1000 7 34.7824 22.0034 10.2343 -8.02177e-05 0.00569124 -0.0014946
1911 1000 6 35.0794 21.8998 9.11699 -0.00254249 -0.00270648 -0.00137022
1912 1001 6 39.3608 48.747 26.687 -0.00163541 -0.00463559 -0.00197067
1913 1001 7 93.5197 48.9399 26.9995 -0.00116823 -0.00429962 -0.000531237
1914 1001 6 92.7315 48.7068 27.8181 0.00141404 0.000439284 0.00330476
1915 1002 6 39.0918 28.3974 4.96949 -0.00247317 -0.00344298 0.0048039
1916 1002 7 38.4558 28.2087 4.01801 0.00341495 0.00454602 -0.000716154
1917 1002 6 38.0435 27.8903 2.98165 0.00444077 -0.000131411 0.000313162
1918 1003 6 28.5273 11.256 12.5027 0.00206931 -0.00282569 0.0020135
1919 1003 7 29.4021 10.7997 11.8929 0.000912586 -0.0030537 0.000524869
1920 1003 6 29.4392 9.97975 11.0715 -0.00124698 -1.54549e-05 -0.00260541
1921 1004 6 58.2284 49.0018 3.83267 -0.00331711 0.000994665 0.00471019
1922 1004 7 31.0231 1.53855 2.8268 0.00551425 0.00122554 0.00853101
1923 1004 6 30.8996 2.60929 2.39489 3.1457e-05 -0.00182243 0.0025426
1924 1005 6 22.6507 16.9034 13.7994 0.00499486 -0.00189023 -0.00143177
1925 1005 7 21.5865 16.6709 13.4049 0.00311211 0.00455525 -0.000151351
1926 1005 6 21.2588 16.3785 14.4792 0.00610006 -0.00554104 -0.00198752
1927 1006 6 26.6334 10.775 15.7815 -0.00194308 0.00244585 -0.00278011
1928 1006 7 25.7265 10.3118 15.225 -0.00130352 0.000731774 -0.00239589
1929 1006 6 25.5416 10.0004 14.1218 0.000415285 -0.00386513 -0.00138636
1930 1007 6 40.7759 9.28748 18.0015 -0.00131882 0.000613834 -0.00354826
1931 1007 7 41.8879 9.39665 18.3117 -0.00223756 0.00201775 -0.000748135
1932 1007 6 42.4335 10.3556 17.9492 -0.00286515 0.00326664 0.00161097
1933 1008 6 23.4773 22.5747 15.5473 -0.00102004 -0.00484555 -0.00297708
1934 1008 7 23.84 21.7066 14.8693 0.00616062 8.18713e-07 -0.00534139
1935 1008 6 24.1935 21.1669 13.9035 0.00218009 0.00357596 -0.00879564
1936 1009 6 21.3284 17.2842 18.8549 -0.00157986 -0.00239586 -0.00112791
1937 1009 7 22.053 16.9222 18.0244 0.0025072 0.000868036 0.00101572
1938 1009 6 22.4702 15.9687 18.5391 -0.00157019 -0.00229062 -0.00153133
1939 1010 6 41.0855 30.188 28.0076 0.00539597 -0.00456761 -0.00547716
1940 1010 7 41.8157 31.0885 28.0493 0.000188383 -0.000225391 -0.00806981
1941 1010 6 42.7723 31.5886 27.6247 0.000948116 0.000915493 -0.00501444
1942 1011 6 72.0181 26.3833 14.8891 0.00646044 -0.00302468 -0.00342185
1943 1011 7 72.3446 26.2031 15.9873 -0.00385636 0.0010964 0.000321138
1944 1011 6 72.4393 25.7044 17.031 0.000215307 -0.00411561 -0.00253946
1945 1012 6 48.6234 46.2643 6.79491 -0.000605497 0.000361626 0.00169735
1946 1012 7 49.5729 46.1497 6.13851 0.00166081 0.000939698 0.00487457
1947 1012 6 50.566 45.5673 5.99567 -0.00209791 -0.00493372 0.00268778
1948 1013 6 44.4456 11.1622 2.67019 -0.00221545 -0.000433765 0.00446666
1949 1013 7 45.3489 10.6113 2.19243 0.000817506 0.00595321 0.00283651
1950 1013 6 46.1198 9.83609 2.58326 -0.00158962 0.000819469 -0.002598
1951 1014 6 66.1291 42.1842 13.4546 0.000617614 0.0054697 0.00902612
1952 1014 7 67.1547 41.935 12.9739 -0.0016654 -0.000521253 0.00726141
1953 1014 6 68.3137 41.9533 12.9278 -0.00174972 -0.00447809 0.00356934
1954 1015 6 82.4019 44.2416 12.7561 -0.000698465 0.00222743 -0.00657316
1955 1015 7 81.5664 43.6009 12.2603 0.00160257 -0.00383296 -0.00261912
1956 1015 6 80.9932 43.0387 13.1 0.00485715 -0.00220096 0.000695171
1957 1016 6 78.8973 37.1002 19.6367 -0.00379162 -0.00228782 0.00615238
1958 1016 7 77.7545 37.1503 19.8347 -0.00549804 -0.00166671 -0.00385329
1959 1016 6 76.9388 36.3356 19.9671 -0.00435449 -0.00139014 0.00489321
1960 1017 6 21.8881 19.2795 11.6144 -0.00223137 0.00542467 0.000616079
1961 1017 7 21.6394 20.3024 12.1015 -0.000460525 0.00474628 0.00294469
1962 1017 6 21.2523 21.3214 12.4987 -0.000594207 0.00262226 0.00826432
1963 1018 6 36.7027 40.9057 11.8386 0.00331621 0.00570959 -0.00304464
1964 1018 7 35.633 41.3538 11.8291 -0.000753896 -0.0038938 0.00229229
1965 1018 6 34.5509 41.6152 11.4971 0.00116414 0.000351447 -0.000616487
ITEM: TIMESTEP
355000
ITEM: NUMBER OF ATOMS
57
ITEM: BOX BOUNDS xy xz yz pp pp pp
0.0000000000000000e+00 1.0131084100000001e+02 2.7630201000000000e+01
0.0000000000000000e+00 5.8491914999999999e+01 1.8420141000000001e+01
0.0000000000000000e+00 3.0080027000000001e+01 1.0634897000000000e+01
ITEM: ATOMS id mol type x y z vx vy vz
1909 1000 6 34.4678 22.1598 8.72269 -0.00030546 0.000565207 -0.00808883
1910 1000 7 34.8661 21.0764 8.84446 -0.00157287 0.00126537 0.00228629
1911 1000 6 35.9165 20.6042 8.69941 -0.00263138 -0.00179018 0.0045676
1912 1001 6 91.6276 45.6753 25.5655 0.00206712 3.9927e-05 0.000165677
1913 1001 7 36.1098 45.177 24.5487 0.000303655 0.000740574 0.000268479
1914 1001 6 36.4502 44.3552 23.804 0.000746487 0.00326072 -0.00231023
1915 1002 6 35.8511 28.2586 3.48106 -0.00100256 0.0021517 -0.000328239
1916 1002 7 35.0187 27.4899 3.72951 -0.00262547 0.00266997 -0.00416182
1917 1002 6 34.0219 26.9345 3.93792 -0.00343286 0.00495504 -0.00193388
1918 1003 6 27.8177 8.15641 9.68452 0.000813635 0.000579142 -0.00305983
1919 1003 7 26.7417 8.53982 9.48278 0.000274587 -0.000124499 -0.00152214
1920 1003 6 25.7844 8.56559 10.1393 0.00197668 0.00198255 0.000877027
1921 1004 6 64.8494 48.678 5.53626 0.000754215 0.00039064 6.80737e-05
1922 1004 7 64.4458 49.6105 6.09743 -0.000381702 -0.00354625 0.00579326
1923 1004 6 37.448 2.56484 6.63608 -0.000902655 -0.000395706 0.00165954
1924 1005 6 19.2595 16.3712 16.6586 -0.00165907 0.00407619 0.00438837
1925 1005 7 20.2297 16.8173 16.2093 -0.00341461 0.00184576 -0.00161695
1926 1005 6 20.4999 15.7757 15.7745 -0.00499535 -0.000366258 0.0026996
1927 1006 6 29.9505 10.4714 13.0733 0.00305599 0.00158151 0.000959323
1928 1006 7 29.3958 10.7471 12.092 0.00392202 0.00206683 0.000606154
1929 1006 6 28.2886 10.6664 11.7517 0.00447719 0.000912802 -0.000926407
1930 1007 6 42.2507 9.51822 17.1926 0.0020705 -0.00204443 0.00462565
1931 1007 7 41.925 10.438 17.8192 0.00260786 0.00125884 5.62019e-05
1932 1007 6 42.7241 10.886 18.533 0.000351629 -0.000574483 0.00373276
1933 1008 6 24.6157 24.7614 17.0073 -0.0027041 0.00864453 -0.00025845
1934 1008 7 23.4959 24.6974 16.7126 -0.00228066 0.00205368 -0.00043567
1935 1008 6 22.5647 24.6045 16.0248 -0.00183778 0.00291557 -0.00115178
1936 1009 6 18.7442 13.6809 13.1158 -0.00568186 -0.00758004 0.00183589
1937 1009 7 18.3834 14.2955 14.0312 -0.000126508 -0.0053502 0.00252844
1938 1009 6 17.6598 15.028 13.4945 0.00252875 -0.00159813 0.00406939
1939 1010 6 29.7883 21.8288 0.999223 -0.00674833 0.00267849 -0.00118778
1940 1010 7 30.2185 21.5587 2.04221 -0.00302103 0.00189164 -0.00292903
1941 1010 6 30.6157 20.728 2.74782 -0.000440037 0.00136905 -0.00499718
1942 1011 6 67.2233 18.3833 12.3241 -0.00272425 -0.00465044 0.00139147
1943 1011 7 67.7901 19.2962 11.8873 0.00558526 -0.0075334 0.00615009
1944 1011 6 68.2756 20.0128 11.1143 -0.00436786 0.00156486 0.00833367
1945 1012 6 41.7484 13.4242 29.832 -0.00649631 0.00166556 -0.000296792
1946 1012 7 24.1033 2.31135 0.470598 -0.00373684 0.0018654 -0.00314001
1947 1012 6 24.5478 2.3342 1.54195 -0.00413996 -0.00220322 -0.00288596
1948 1013 6 43.5706 10.4542 3.09983 0.000808719 0.0040625 -0.00292023
1949 1013 7 44.5537 9.88275 3.33305 -0.00105868 0.0017953 -0.000603645
1950 1013 6 45.3572 9.3591 2.67873 0.000403853 0.00183196 0.00116299
1951 1014 6 53.3858 48.545 28.5431 -0.00109933 0.00580077 0.00603075
1952 1014 7 54.3649 49.0634 28.1999 -0.00598031 0.00745908 -0.00538676
1953 1014 6 55.2668 49.2143 27.4861 -0.00294012 -0.00522825 -0.0042279
1954 1015 6 32.877 45.3972 9.8336 -0.00158945 0.00762573 -0.00272352
1955 1015 7 31.9314 45.5269 9.16756 -0.00536451 -0.0033122 0.000504812
1956 1015 6 32.081 44.9032 8.19891 4.98008e-05 0.0012469 -0.00159434
1957 1016 6 70.6165 37.7828 17.9036 0.00402891 -0.00145008 0.00562765
1958 1016 7 70.0553 37.4073 16.9593 0.00244145 -0.000131862 0.00604695
1959 1016 6 69.6587 37.9439 16.0099 0.00369313 0.00067105 0.00597796
1960 1017 6 20.6858 8.72547 11.8786 0.00619993 0.00013657 -0.00135611
1961 1017 7 19.8829 9.38227 12.3976 0.00681874 -8.55605e-05 -0.000117496
1962 1017 6 19.0062 9.89691 12.9566 0.00469818 -0.000154907 -0.00337938
1963 1018 6 83.5005 47.4589 4.47991 0.00543216 -0.00630242 -0.00241344
1964 1018 7 83.3571 47.1435 5.58686 -0.00303297 -0.00148888 -0.00213919
1965 1018 6 83.3763 47.1592 6.74819 -0.0046951 2.54179e-05 -0.00213216
ITEM: TIMESTEP
360000
ITEM: NUMBER OF ATOMS
57
ITEM: BOX BOUNDS xy xz yz pp pp pp
0.0000000000000000e+00 1.0131084100000001e+02 2.7630201000000000e+01
0.0000000000000000e+00 5.8491914999999999e+01 1.8420141000000001e+01
0.0000000000000000e+00 3.0080027000000001e+01 1.0634897000000000e+01
ITEM: ATOMS id mol type x y z vx vy vz
1909 1000 6 36.5004 25.918 12.159 -0.000351355 0.00427669 0.00448014
1910 1000 7 37.5491 26.4089 12.0778 -0.00031455 0.00359343 0.000828296
1911 1000 6 38.259 26.8812 12.8653 0.00125731 0.0062049 -0.00215448
1912 1001 6 40.1616 48.0042 26.4571 0.000163571 -0.00088615 -0.00328145
1913 1001 7 39.0106 48.1492 26.5099 -0.000516888 -0.00740685 -0.000195745
1914 1001 6 93.4393 48.8291 26.9475 -0.00286319 -0.00658479 -0.00593302
1915 1002 6 40.3622 32.6217 3.74746 0.000376037 0.00550085 0.00140267
1916 1002 7 39.5694 33.1777 4.38616 0.000233586 0.00573899 0.00101858
1917 1002 6 38.7628 33.4958 5.15656 -0.00210229 0.00510833 -0.00116685
1918 1003 6 27.5449 11.6952 12.469 0.00348924 -0.000516613 0.00747309
1919 1003 7 27.9582 10.8725 11.7635 0.000841969 0.00514107 -0.000674565
1920 1003 6 27.438 10.0405 11.1426 -0.00023451 -0.000124827 0.00728444
1921 1004 6 59.0513 46.8412 3.52075 -0.00390643 -0.000215112 0.00346662
1922 1004 7 59.8718 46.8442 4.3418 0.00299532 0.00132651 -0.0034361
1923 1004 6 60.2166 47.7559 4.9728 -0.000974436 -0.000403324 0.00123226
1924 1005 6 24.9033 23.8447 12.877 -0.00103684 -0.00755177 -0.00324682
1925 1005 7 23.9612 23.7538 13.5451 0.000833549 0.0016765 0.000645833
1926 1005 6 24.5216 22.9954 14.2215 -0.00192904 0.000440344 0.00154842
1927 1006 6 33.6579 8.44554 17.4621 -0.00809346 0.00395352 -0.00374351
1928 1006 7 33.9363 8.24542 16.3534 -0.00636729 0.00159484 -0.00288436
1929 1006 6 33.4104 7.67568 15.4891 -0.00864943 0.00627032 -0.0045778
1930 1007 6 41.2376 9.74257 17.6684 0.00497219 -0.00369048 0.00386142
1931 1007 7 41.5912 10.2651 18.6414 0.00560224 0.00537552 -0.00123593
1932 1007 6 42.6523 9.9854 19.0216 0.00462135 0.00657769 0.00238565
1933 1008 6 22.9619 20.9672 18.039 -0.000320881 0.00316726 -0.00309375
1934 1008 7 23.2325 22.0742 18.2541 0.000605531 0.00242985 -0.000463399
1935 1008 6 23.0979 23.2264 18.312 -0.00136558 0.00169148 0.00963965
1936 1009 6 68.801 15.0569 20.8034 -0.00308225 -0.00140138 -0.00154882
1937 1009 7 68.8646 16.1515 20.4244 0.0049994 -0.00247814 -0.00330061
1938 1009 6 68.4195 16.0103 19.3613 0.00102135 -0.000323231 -0.00192141
1939 1010 6 40.8485 33.6812 22.385 -0.00239329 0.00205138 -0.00399491
1940 1010 7 41.4351 32.9867 21.6643 -0.000162108 0.00150202 -0.0016494
1941 1010 6 42.1195 32.9042 20.7313 0.0030409 0.000819773 0.000760232
1942 1011 6 57.6663 16.9765 16.0504 0.00127292 -0.000276877 -0.0013561
1943 1011 7 58.1104 17.9152 16.567 -0.00319988 0.0035578 -0.0044786
1944 1011 6 58.8769 18.6211 17.0779 -0.00890811 0.00545909 0.00145845
1945 1012 6 21.121 5.47572 2.0572 -0.00580284 -0.000160211 -0.00299064
1946 1012 7 21.2458 5.4491 0.904303 0.00252879 0.00785654 -0.00227374
1947 1012 6 39.1464 16.2835 29.9664 0.00257951 -0.00569909 -0.00495564
1948 1013 6 42.4489 10.2683 3.65465 0.00410491 -0.00246354 0.00283241
1949 1013 7 43.3842 9.581 3.63341 0.00368356 -0.00300965 0.001948
1950 1013 6 44.4827 9.72385 3.28573 0.00283232 -0.00440684 -0.00131545
1951 1014 6 54.6108 42.8346 23.7509 -0.00683507 -0.000894634 -0.00735323
1952 1014 7 54.355 43.463 24.6914 0.00816209 -0.00501139 -0.00052371
1953 1014 6 54.303 44.4484 25.3014 0.00109788 -0.00437238 -0.00215864
1954 1015 6 34.218 44.5523 8.9275 -0.000734813 0.00252957 -0.00235851
1955 1015 7 33.6584 45.439 9.43257 0.00121324 0.00150675 0.0015954
1956 1015 6 34.386 46.3429 9.4889 0.000640341 0.00216816 -0.00161747
1957 1016 6 64.4272 35.1069 9.71418 0.000383951 -0.0059615 -0.00474983
1958 1016 7 63.6139 35.5145 8.99296 -0.00366093 0.00416791 0.00553499
1959 1016 6 63.526 36.4904 8.37129 0.00368075 0.0022702 0.00151765
1960 1017 6 28.7658 16.1646 21.1394 0.000991456 0.00144441 -0.000301847
1961 1017 7 28.0529 15.4115 21.6592 0.00289552 0.00139321 0.00223582
1962 1017 6 27.3807 14.7347 22.3196 -0.000256806 0.00598038 0.00372914
1963 1018 6 4.80637 1.99068 4.05311 -0.000926604 -0.000590127 -0.00366067
1964 1018 7 3.69883 1.79928 4.3396 -0.00167634 -0.00232955 -0.00772122
1965 1018 6 30.3738 49.1585 4.77435 5.70767e-05 0.00507718 0.0045683
ITEM: TIMESTEP
365000
ITEM: NUMBER OF ATOMS
57
ITEM: BOX BOUNDS xy xz yz pp pp pp
0.0000000000000000e+00 1.0131084100000001e+02 2.7630201000000000e+01
0.0000000000000000e+00 5.8491914999999999e+01 1.8420141000000001e+01
0.0000000000000000e+00 3.0080027000000001e+01 1.0634897000000000e+01
ITEM: ATOMS id mol type x y z vx vy vz
1909 1000 6 37.091 27.6812 12.2354 0.00223064 -0.00323922 0.000549786
1910 1000 7 36.2647 26.9259 11.9286 -0.00244101 0.00155095 0.00134071
1911 1000 6 35.4876 26.9184 11.0664 -0.00141341 0.00467021 0.000387424
1912 1001 6 35.4517 41.2001 26.2348 -0.000188174 -0.00517775 -0.00162053
1913 1001 7 35.6471 41.4566 25.1192 0.00513179 -0.00361853 -0.000330307
1914 1001 6 35.4529 41.0941 24.0345 9.04476e-05 0.00430906 -0.00207771
1915 1002 6 41.7757 30.7386 3.36742 0.00176735 0.00141665 -0.0034499
1916 1002 7 42.3786 31.4262 2.65385 0.00228953 -0.000648847 -0.0049991
1917 1002 6 42.7445 32.1294 1.80713 0.0015106 0.00123772 -0.00376882
1918 1003 6 23.4085 8.96776 14.1922 0.00045316 0.00635028 0.00632091
1919 1003 7 23.3665 8.2261 15.083 -0.00598472 0.00084846 0.00143696
1920 1003 6 23.0644 8.35705 16.1965 -0.00181041 -0.00314536 0.00303911
1921 1004 6 61.3942 12.9863 28.1449 0.00398701 -0.000944614 0.00120235
1922 1004 7 60.5934 13.5792 28.7404 0.00405844 -0.000954805 0.00130857
1923 1004 6 60.5973 14.7193 28.96 0.00496815 -0.00124547 0.00280131
1924 1005 6 21.9425 15.9354 12.0536 0.00148923 -0.00767344 0.00178407
1925 1005 7 22.8749 16.2095 11.423 -0.000276961 -0.00768195 -0.000830993
1926 1005 6 23.086 17.1019 12.1343 -0.00314484 -0.00256431 -0.00640012
1927 1006 6 30.0243 10.8085 14.0787 0.00266297 0.000151113 -0.0019651
1928 1006 7 29.9787 10.1074 15.0023 0.00350499 0.00277638 6.95376e-05
1929 1006 6 30.7019 9.3079 15.4335 -0.00095052 -0.00364476 -0.00436238
1930 1007 6 39.6899 7.9502 14.7312 -0.00227044 0.00203998 0.000362022
1931 1007 7 39.3577 8.89921 14.1534 0.00430677 0.000953184 -0.00520479
1932 1007 6 38.8364 8.72512 13.1303 -0.00136313 -0.00159681 -0.00188213
1933 1008 6 21.2493 26.2421 12.586 0.000838263 0.0022509 0.00198605
1934 1008 7 22.0153 26.6566 11.8202 -0.000807253 0.000214953 -0.000762142
1935 1008 6 22.7946 26.6449 10.9591 0.00267258 -0.0029919 0.00243017
1936 1009 6 19.0945 16.4108 17.5885 -0.000953566 -0.000125822 0.00484854
1937 1009 7 17.9361 16.3547 17.6161 -0.0010094 -0.00281186 -0.00292518
1938 1009 6 17.8069 15.4588 18.3433 -0.00384599 -0.00132303 -0.00159503
1939 1010 6 47.9406 38.2753 19.9549 0.00392843 0.00107131 0.00100752
1940 1010 7 47.1303 37.6184 20.4627 0.00348771 0.0016141 0.0010064
1941 1010 6 46.6023 36.5868 20.5134 0.00100606 0.00279622 -0.000779749
1942 1011 6 49.75 22.5661 12.4545 0.00702897 0.00568831 0.00300825
1943 1011 7 49.4633 21.7505 13.2277 0.00278701 0.00410644 -0.000233011
1944 1011 6 49.5729 20.9028 14.0127 -0.00172043 -0.00158587 -0.00575102
1945 1012 6 29.3862 15.2996 26.8869 -0.00130912 -0.00189211 0.00156632
1946 1012 7 30.3497 15.2386 26.244 -0.00146813 -0.00146462 0.00128745
1947 1012 6 31.4079 14.7708 26.158 -0.0017154 -0.00186428 0.000419366
1948 1013 6 47.751 9.76023 2.38043 -1.76895e-05 -0.000419382 -0.00397045
1949 1013 7 46.7548 9.5617 1.81854 0.000185741 -0.00154994 -0.00393167
1950 1013 6 45.7481 9.06348 2.11242 -0.00107073 0.00195963 -0.00228571
1951 1014 6 37.5117 31.9269 3.40942 0.00131997 -0.00234214 0.00290199
1952 1014 7 38.0758 31.2195 2.68398 -0.00523062 -0.00126737 -0.00324023
1953 1014 6 38.8132 30.9901 1.81831 0.000940438 -0.00144628 0.00206406
1954 1015 6 89.5611 47.6606 17.6863 0.0023609 -0.00247936 0.00372882
1955 1015 7 88.4446 47.4705 17.9539 -0.000742457 0.00444855 -0.00429884
1956 1015 6 88.1021 48.2986 18.6932 0.000982068 0.00272037 -0.00156407
1957 1016 6 70.0514 32.9224 12.6997 0.00128314 -0.00262066 0.00280085
1958 1016 7 69.2201 33.3753 12.0279 0.00291353 -0.000379205 0.00229458
1959 1016 6 68.0662 33.2538 12.0081 0.00297326 -0.000411053 -0.00099144
1960 1017 6 31.507 22.0543 27.7515 -0.00120582 -0.00442815 -0.00402927
1961 1017 7 32.1332 22.4852 28.6277 -0.00428144 -0.00149107 -0.00327575
1962 1017 6 32.8776 22.8114 29.4556 -0.00866156 -0.00149695 0.000664707
1963 1018 6 20.9909 14.7864 29.6239 -0.00277241 -0.00236377 0.00298764
1964 1018 7 21.9929 14.7083 30.2029 -0.00182208 0.00335733 0.00211479
1965 1018 6 4.69039 4.20049 0.412815 -0.000494451 0.00306612 -0.00287535
ITEM: TIMESTEP
370000
ITEM: NUMBER OF ATOMS
57
ITEM: BOX BOUNDS xy xz yz pp pp pp
0.0000000000000000e+00 1.0131084100000001e+02 2.7630201000000000e+01
0.0000000000000000e+00 5.8491914999999999e+01 1.8420141000000001e+01
0.0000000000000000e+00 3.0080027000000001e+01 1.0634897000000000e+01
ITEM: ATOMS id mol type x y z vx vy vz
1909 1000 6 35.8883 27.5214 14.1834 -0.000331072 0.00522954 0.00159897
1910 1000 7 36.536 27.6116 13.2244 -0.00702316 0.00277801 -0.0031509
1911 1000 6 36.6399 28.4435 12.4216 -0.00563677 0.00477501 -0.00090228
1912 1001 6 34.3091 35.9581 24.6727 -0.0106322 -0.00319198 0.00277411
1913 1001 7 34.7682 35.7466 25.7181 -0.00201893 -0.00316761 -0.00100364
1914 1001 6 35.0647 34.8949 26.4479 0.00753267 -0.00327144 -0.00500496
1915 1002 6 56.3357 40.2258 24.5166 0.00703829 0.00567792 -0.000727807
1916 1002 7 56.8227 39.3775 25.14 -0.00101983 0.0012822 -0.000413223
1917 1002 6 57.3429 38.4127 25.5195 -0.00677895 -0.00181947 -0.000405379
1918 1003 6 50.965 52.7904 17.1204 0.00339847 -0.00351099 -0.00229451
1919 1003 7 51.8234 53.2388 17.7588 0.00128958 0.0014565 -0.00294806
1920 1003 6 52.9715 53.0654 17.7584 0.00110446 0.00021397 0.00331461
1921 1004 6 83.1217 53.5402 27.1417 -0.00313155 -0.00401798 0.000686191
1922 1004 7 83.598 53.8354 26.1251 -0.00430645 -0.00125283 0.000938527
1923 1004 6 84.4059 53.2406 25.5404 -0.00472226 0.000519191 -0.00143862
1924 1005 6 21.0828 18.3578 20.0165 0.00167914 0.000816654 0.00363297
1925 1005 7 20.7368 19.218 19.3221 0.00413128 -0.000712193 0.00051762
1926 1005 6 21.2841 19.9808 20.0044 -0.00678241 0.00188643 0.00636535
1927 1006 6 28.3735 12.5325 15.0694 -0.00119119 0.000412342 -0.00258494
1928 1006 7 27.6536 13.0732 15.8015 0.002212 -0.000228281 0.00123496
1929 1006 6 27.0337 12.7199 16.7175 0.00485704 -0.00146996 0.00254596
1930 1007 6 66.6818 51.8202 18.9913 -0.00563709 -0.00311157 -0.00149063
1931 1007 7 66.6603 52.9783 19.0469 -0.00223432 -0.00318265 0.00130463
1932 1007 6 67.3616 53.5438 18.3139 -0.00027299 -0.00348186 0.00295026
1933 1008 6 73.6293 28.6307 12.8438 0.00375908 0.00111109 0.00226828
1934 1008 7 73.8014 27.6815 12.2002 0.00335702 0.00191776 0.000971192
1935 1008 6 74.347 26.9473 11.4844 0.00382143 0.00180998 0.00143574
1936 1009 6 19.3618 14.4424 14.0301 0.00188313 0.00380261 -0.0035336
1937 1009 7 18.7598 14.539 15.0171 0.000506517 -0.00459065 -0.00355196
1938 1009 6 18.4817 15.6649 14.9602 0.00404714 -0.00314979 0.00765313
1939 1010 6 48.2107 42.3818 15.4629 -0.00482861 -9.90851e-05 -0.000186198
1940 1010 7 47.3485 43.125 15.2387 -0.0034512 0.0015809 8.61223e-05
1941 1010 6 46.9295 43.9499 14.539 -0.00248835 0.00175373 -0.000286769
1942 1011 6 49.8254 26.3443 8.85921 0.00114957 0.00504325 -0.00365785
1943 1011 7 50.3426 26.4705 7.8287 0.000531285 -0.00302036 -0.00495535
1944 1011 6 50.4796 26.6368 6.68832 0.00060379 0.000397731 -0.00444817
1945 1012 6 42.3197 49.2854 3.68957 0.000913803 0.00598768 -0.00193543
1946 1012 7 41.2155 48.935 3.63101 0.00323518 -0.00115142 -0.00298947
1947 1012 6 40.4803 48.0656 3.85355 0.00809924 -0.00468546 -0.000725125
1948 1013 6 64.2354 17.457 28.1453 -0.00018172 0.00234738 0.00049324
1949 1013 7 64.7125 18.5114 28.2355 0.00161056 0.00148544 0.00108941
1950 1013 6 65.3769 19.1588 27.5373 0.00545919 -0.000608448 0.00281014
1951 1014 6 37.6778 30.4883 6.36339 0.000885398 -0.00031391 -0.00428667
1952 1014 7 37.7966 29.4737 5.81436 0.00445078 -0.00236901 0.000282852
1953 1014 6 37.8079 28.7953 4.87336 0.00471386 -0.00695214 0.00359006
1954 1015 6 86.4649 51.5385 15.4223 -0.00708738 -0.0014996 0.00100024
1955 1015 7 86.5056 51.3408 14.2761 -0.00655589 0.000779813 0.000625994
1956 1015 6 87.2219 50.4461 14.087 -0.00544903 0.00199482 -0.000929817
1957 1016 6 59.0358 39.0274 5.15212 -0.0041527 0.00135491 -0.000105122
1958 1016 7 58.0005 38.5413 5.3509 -0.00237895 -0.00210821 0.000663386
1959 1016 6 56.9513 38.9815 5.57911 -0.00527544 -0.00539511 -0.00631283
1960 1017 6 30.7804 13.2146 24.3368 0.00256624 0.00393817 0.00436606
1961 1017 7 30.0779 12.9022 25.2054 0.00167792 0.00364085 0.00354069
1962 1017 6 29.3509 12.4506 25.9886 0.00368011 0.00183026 0.00435497
1963 1018 6 24.0195 15.8493 25.9386 0.00069505 -0.00478225 -0.00400875
1964 1018 7 23.2339 15.2697 26.5649 0.00130751 0.00102488 0.00213453
1965 1018 6 22.2187 14.9199 27.008 0.000735508 -0.0025062 -0.00196258
ITEM: TIMESTEP
375000
ITEM: NUMBER OF ATOMS
57
ITEM: BOX BOUNDS xy xz yz pp pp pp
0.0000000000000000e+00 1.0131084100000001e+02 2.7630201000000000e+01
0.0000000000000000e+00 5.8491914999999999e+01 1.8420141000000001e+01
0.0000000000000000e+00 3.0080027000000001e+01 1.0634897000000000e+01
ITEM: ATOMS id mol type x y z vx vy vz
1909 1000 6 30.0951 24.4456 12.6786 -0.000231115 -0.00248565 -0.00387332
1910 1000 7 29.3582 25.3394 12.7527 -0.000710152 -0.00300653 -0.00235421
1911 1000 6 29.1752 26.2653 12.077 0.00353174 0.00164719 0.00287402
1912 1001 6 28.7872 36.2873 9.60496 -0.00232226 -0.00323064 0.00134043
1913 1001 7 28.3576 37.2306 9.08138 0.00855644 0.00282126 0.00331798
1914 1001 6 28.4025 37.8519 8.10278 0.00676527 -0.00229472 -1.21675e-05
1915 1002 6 37.1912 27.3259 0.250139 -0.00578371 0.00161397 0.00170932
1916 1002 7 37.9615 28.16 0.487247 -0.00164426 -0.00251237 0.00277809
1917 1002 6 38.6155 28.9872 0.97041 0.00158748 -0.0054608 0.0034513
1918 1003 6 60.6671 51.0412 13.0178 -0.00307476 0.00425218 -0.00269691
1919 1003 7 61.019 50.7297 14.0783 0.00519555 0.00335872 -0.00570335
1920 1003 6 60.9467 49.7298 14.6643 0.00275463 0.00512361 -0.00299283
1921 1004 6 49.3405 11.8322 24.9081 0.000160963 -9.34804e-05 0.00185129
1922 1004 7 49.4946 12.5039 25.8421 -0.00336464 0.0053712 -0.0014974
1923 1004 6 48.8056 12.5612 26.775 0.00178475 -0.00107858 0.00270117
1924 1005 6 70.4993 22.2254 20.0203 -0.00223356 -0.00502057 -0.00271528
1925 1005 7 71.0205 21.7545 20.9415 -0.00336404 -0.0023402 -0.000705798
1926 1005 6 72.004 21.6652 20.3318 -0.00178046 -0.00134635 0.00170297
1927 1006 6 27.6084 11.8525 14.1473 -0.000945494 -0.00220308 -0.00137693
1928 1006 7 27.9083 12.5824 14.9981 -0.000770723 -0.00155851 -0.00199155
1929 1006 6 28.2442 12.4296 16.099 -0.0009792 -0.000703814 -0.00180926
1930 1007 6 33.8509 8.9494 17.6796 0.00306884 0.00194915 0.00209967
1931 1007 7 33.1439 8.70814 16.7926 0.00242072 0.00158727 0.0027147
1932 1007 6 33.4958 7.87577 16.0632 0.00288214 0.00275355 0.00160639
1933 1008 6 72.949 24.8584 10.4642 0.00382487 -0.00243155 -0.0025025
1934 1008 7 73.2839 23.9144 9.8797 0.00165195 -0.00187364 -0.00464846
1935 1008 6 17.9395 22.8729 9.37271 0.00237701 -0.00577351 0.00324381
1936 1009 6 17.1122 14.6739 9.19233 0.00429773 -0.00143354 0.00203476
1937 1009 7 16.9937 14.7584 10.3433 -0.0011097 -0.00137078 0.00147339
1938 1009 6 15.8887 14.4168 10.4457 -0.0013299 -0.00218388 -0.00361258
1939 1010 6 41.0032 41.4924 14.5615 0.00410773 -0.00155794 -0.00282069
1940 1010 7 41.842 40.9532 15.1545 0.00618792 0.00518393 0.000367011
1941 1010 6 42.8053 40.3083 15.1131 0.000437241 -0.00367873 0.00461809
1942 1011 6 70.4668 29.1328 29.6894 -0.000130949 -0.000657505 0.00379968
1943 1011 7 70.9882 29.8974 28.9901 -0.00340484 -0.000782286 0.00122208
1944 1011 6 71.1528 30.6431 28.1162 -0.0056543 -0.00521576 -0.00298474
1945 1012 6 51.2473 47.0106 4.79248 0.00296372 0.000498886 -0.00254736
1946 1012 7 51.3359 47.5035 3.74625 0.00206959 1.41686e-05 -0.00285145
1947 1012 6 51.7547 48.4086 3.15345 0.00307675 -0.00115243 -0.00392084
1948 1013 6 45.6824 12.5843 4.11629 2.68122e-05 0.000431491 0.00308353
1949 1013 7 46.2753 11.8631 3.42635 -0.00205024 0.00203516 -0.000377518
1950 1013 6 46.1974 10.7297 3.1866 -2.01125e-05 0.00170749 0.000512179
1951 1014 6 51.2275 40.7011 28.7837 -0.00209579 -0.00264684 -0.00215954
1952 1014 7 50.6721 39.7254 28.4929 -0.0040121 3.12079e-05 -0.00748566
1953 1014 6 50.6047 38.6687 28.019 -0.00392204 -0.000648915 -0.00598206
1954 1015 6 36.3117 47.7566 15.7919 -0.00134718 -0.0031409 -0.0062321
1955 1015 7 37.1524 47.0471 16.1717 -0.00078281 0.00208015 0.00227157
1956 1015 6 36.69 46.3207 16.9515 -0.00485808 -0.00288494 -0.00476973
1957 1016 6 72.3959 44.7455 23.9717 -0.000962195 -0.00147769 -0.00651129
1958 1016 7 71.3288 45.1203 24.2336 0.000570109 -0.00168055 2.27233e-05
1959 1016 6 70.3332 44.5714 24.4662 0.000350398 -0.00177503 -0.00114064
1960 1017 6 36.7745 10.5139 27.8985 0.00190462 0.000356594 -0.00443178
1961 1017 7 63.4627 57.6951 27.9344 0.00250908 -0.000263367 -0.000247581
1962 1017 6 62.4477 57.145 28.0489 0.00120445 0.00176422 -0.00207006
1963 1018 6 70.507 13.1347 28.1132 -0.00149254 -0.004822 -0.0029128
1964 1018 7 70.7794 13.3089 26.9993 -0.00550409 0.00179399 -0.00285902
1965 1018 6 71.2299 13.7744 26.0351 0.00246641 -0.000287913 -0.00013972
ITEM: TIMESTEP
380000
ITEM: NUMBER OF ATOMS
57
ITEM: BOX BOUNDS xy xz yz pp pp pp
0.0000000000000000e+00 1.0131084100000001e+02 2.7630201000000000e+01
0.0000000000000000e+00 5.8491914999999999e+01 1.8420141000000001e+01
0.0000000000000000e+00 3.0080027000000001e+01 1.0634897000000000e+01
ITEM: ATOMS id mol type x y z vx vy vz
1909 1000 6 35.3271 19.2021 11.1223 -0.00138916 0.00423221 0.00306012
1910 1000 7 34.3649 18.5757 11.2931 -0.000441126 0.00170797 -0.000856277
1911 1000 6 34.1594 17.4333 11.2875 0.00300676 0.00108178 0.000398591
1912 1001 6 28.0418 34.7351 8.59462 0.00554279 0.00358345 0.00252647
1913 1001 7 27.831 33.6047 8.43266 0.00753175 0.00260395 0.00677415
1914 1001 6 27.0596 32.7639 8.64179 0.000367651 0.00595371 -0.00618449
1915 1002 6 38.9153 42.4191 7.73849 -0.000585623 -0.00130188 -0.000950246
1916 1002 7 40.0232 42.2275 7.45365 2.1677e-05 0.00463508 -0.00258246
1917 1002 6 41.1741 42.2624 7.31349 0.000149611 0.0083575 -0.000603881
1918 1003 6 60.867 52.9118 13.6312 -0.00333238 0.00307791 -0.00361011
1919 1003 7 61.123 52.0331 12.9186 -0.00353588 0.00284184 -0.00339209
1920 1003 6 60.9531 50.8871 12.9972 0.00337151 0.00208329 0.000476705
1921 1004 6 79.0983 53.5506 27.8071 -0.000279253 0.00128371 0.0017905
1922 1004 7 78.9918 54.7052 27.7527 -0.00623264 0.00091314 0.00557542
1923 1004 6 79.3345 55.4707 28.5557 -0.00054579 0.000712437 0.0033399
1924 1005 6 22.4674 18.1286 21.5886 0.000873713 0.00117688 -0.00133852
1925 1005 7 21.9738 18.7277 20.7287 -0.00804348 -0.00171201 0.00176815
1926 1005 6 21.8359 17.743 20.1301 0.00390331 -0.00105801 -0.00205944
1927 1006 6 27.5113 12.4556 12.249 0.00350893 2.88806e-05 0.00343541
1928 1006 7 27.5071 11.296 12.2938 0.00203008 3.37596e-05 0.00342093
1929 1006 6 26.9617 10.5257 12.9701 -0.000285326 0.000682548 0.00229259
1930 1007 6 33.7188 6.75742 17.6522 0.00194465 -0.0041607 -0.000475478
1931 1007 7 61.1421 53.6911 18.3226 -0.00298865 -0.00407747 -0.00188337
1932 1007 6 60.4211 53.8543 19.2183 -0.00298572 -0.00186777 -0.0022835
1933 1008 6 70.0452 27.1388 11.7418 0.00117925 -0.000638095 -0.00436464
1934 1008 7 70.9874 27.3271 12.3912 -0.00348629 -0.00298458 0.00308546
1935 1008 6 71.996 27.1005 12.9208 -0.00325433 -0.00234837 0.00291588
1936 1009 6 17.7729 19.442 8.9739 0.000647358 0.000100687 0.00280444
1937 1009 7 16.7559 19.9924 9.06558 0.00191311 0.00332182 -0.00249192
1938 1009 6 17.1336 21.0308 9.42249 0.00336676 0.00221871 -0.000821313
1939 1010 6 38.0177 41.1951 11.976 0.00171312 0.00557927 -0.0052153
1940 1010 7 38.5998 40.1996 12.1029 -0.00365513 0.00332722 0.00174821
1941 1010 6 39.6323 39.6785 12.1929 -0.00604722 -0.00300743 -0.00748508
1942 1011 6 48.9107 19.1427 2.32647 -0.000896709 -0.00158656 0.00499737
1943 1011 7 49.5402 18.2563 2.7306 0.000377528 -0.00306051 -0.000220282
1944 1011 6 50.4241 17.6686 3.19977 0.000378804 -0.0042587 -0.00172367
1945 1012 6 43.3972 12.0802 25.1729 -0.00252265 -0.000720715 0.00125372
1946 1012 7 44.1336 12.6385 25.874 -0.00168881 0.000439572 -0.000545989
1947 1012 6 44.3495 12.9551 26.9691 -0.00156011 0.00422621 -0.0016662
1948 1013 6 45.5627 13.7805 3.81696 -0.00156207 0.00111796 -0.00174678
1949 1013 7 46.4601 14.5122 3.73418 0.000343065 -0.00105317 -0.00028308
1950 1013 6 47.3682 14.5972 3.01581 8.88529e-05 -0.00145827 -0.000652368
1951 1014 6 55.7611 36.4209 26.1237 0.00054812 0.00782324 0.00158325
1952 1014 7 55.3548 36.4809 27.2083 -0.000687243 0.00881979 0.0010654
1953 1014 6 55.4714 36.5621 28.3596 -0.00160967 -0.00230089 0.00194303
1954 1015 6 37.1934 45.8301 17.5445 0.00596955 -0.000858095 -0.00481211
1955 1015 7 37.1917 46.981 17.3715 0.00153915 -0.00133304 -0.00792936
1956 1015 6 38.2459 47.39 17.6381 -0.00225692 0.00451715 -0.00189435
1957 1016 6 73.7139 36.5071 24.9957 0.00345944 -0.00126442 0.00194064
1958 1016 7 73.8445 35.3537 25.013 -0.00364067 -0.00210498 -0.000481703
1959 1016 6 73.7828 34.564 25.861 0.00068793 -0.00244033 -0.00047905
1960 1017 6 35.8509 14.4841 26.086 -0.000371161 -0.0011879 0.00513811
1961 1017 7 35.1658 15.419 26.042 0.00474405 0.0025567 0.0050598
1962 1017 6 34.3807 16.2713 26.1002 0.00707186 0.00496615 0.00117322
1963 1018 6 69.0277 15.2971 23.3153 0.00394872 0.00461211 -0.00470293
1964 1018 7 68.5388 16.3489 23.327 0.0033249 0.00427218 -0.000191198
1965 1018 6 68.2058 17.4126 23 0.00159411 0.00497167 0.00384781
ITEM: TIMESTEP
385000
ITEM: NUMBER OF ATOMS
57
ITEM: BOX BOUNDS xy xz yz pp pp pp
0.0000000000000000e+00 1.0131084100000001e+02 2.7630201000000000e+01
0.0000000000000000e+00 5.8491914999999999e+01 1.8420141000000001e+01
0.0000000000000000e+00 3.0080027000000001e+01 1.0634897000000000e+01
ITEM: ATOMS id mol type x y z vx vy vz
1909 1000 6 32.2573 19.8669 11.3272 -0.00174864 0.000176905 0.00674862
1910 1000 7 32.5402 18.8105 10.9381 0.00373415 0.00343417 0.0018903
1911 1000 6 33.0306 17.8903 11.4483 0.00237759 0.00134208 -0.000579255
1912 1001 6 81.5946 43.7871 12.7766 -4.03897e-05 0.00484875 -0.00148809
1913 1001 7 81.3582 42.8795 12.0919 -0.00655452 0.00546465 -5.54303e-05
1914 1001 6 81.4924 42.4672 11.0159 0.00251991 -0.0031983 0.00439557
1915 1002 6 47.5114 44.8797 5.27667 -0.00329372 -0.00287894 -0.000903817
1916 1002 7 46.8376 45.8238 5.27304 0.00256313 0.00131278 0.00221305
1917 1002 6 46.238 46.7827 5.53091 0.00244384 -0.000141847 0.00734444
1918 1003 6 60.0775 49.2774 14.1605 -0.00231063 -0.00378003 0.00101483
1919 1003 7 59.9831 49.5638 15.2806 0.00298604 0.00211837 -4.66151e-05
1920 1003 6 60.7143 49.4664 16.1774 0.00549486 0.00256235 -0.00204391
1921 1004 6 59.163 45.9652 0.406711 0.00172605 0.0048301 0.00310435
1922 1004 7 58.2553 45.8909 1.12646 -0.00172429 0.000976779 -0.00164474
1923 1004 6 58.1355 45.154 2.0158 -0.0031664 0.000596616 -0.00215401
1924 1005 6 74.9649 21.1804 20.8201 -0.00313035 -0.000929426 3.25528e-05
1925 1005 7 20.0231 20.141 20.42 -0.00683722 -0.00231691 0.000684863
1926 1005 6 20.3189 19.8241 21.4965 -0.00202362 -0.000494939 -0.000101652
1927 1006 6 28.59 11.1966 13.8057 0.00440589 -0.00241677 0.00100562
1928 1006 7 27.8172 10.7816 14.5654 0.00289377 -0.000353781 0.000594281
1929 1006 6 26.7692 11.1401 14.9138 0.00122876 -0.000636507 -0.00412442
1930 1007 6 31.2519 9.85293 15.8073 -0.00185649 -0.000162171 0.00385572
1931 1007 7 31.0654 8.84411 16.3479 0.0054137 -0.00344381 0.000240711
1932 1007 6 30.3033 8.12377 15.8488 0.00847667 -0.00594335 -0.000828496
1933 1008 6 19.3595 22.6474 9.22749 -0.00255846 0.00214797 0.00174795
1934 1008 7 18.2518 22.3145 9.31185 -0.00174033 -0.00202189 -0.00396124
1935 1008 6 17.0999 22.3512 9.16735 -0.00223036 -8.89711e-05 0.000435734
1936 1009 6 18.3696 18.0058 9.5432 0.00551183 0.000850852 -0.00550591
1937 1009 7 18.0459 18.263 8.45926 -0.000789448 0.00438054 -0.00278677
1938 1009 6 18.1203 19.4207 8.50877 -0.00597103 0.00449828 0.00224975
1939 1010 6 78.6074 45.5959 7.17283 -0.000504253 -0.000299141 -0.00384609
1940 1010 7 79.3168 46.1268 6.42394 -0.00289963 0.00303132 -0.00375447
1941 1010 6 80.0004 46.0292 5.49188 -0.00206096 0.00617232 -0.0034681
1942 1011 6 51.346 17.8549 1.03573 -0.000241105 -0.000227461 0.0037444
1943 1011 7 50.928 18.6335 1.78687 0.00128818 0.00148867 0.00281658
1944 1011 6 50.6945 19.1669 2.79082 -0.00667008 -0.00263169 0.00315518
1945 1012 6 28.4799 9.80895 17.7096 0.00165821 -0.00260996 -0.00139118
1946 1012 7 27.7694 9.2283 18.4192 0.00173706 -0.00560093 -0.00375953
1947 1012 6 27.6182 8.83326 19.4995 -0.0022257 -0.00238556 -0.00313865
1948 1013 6 43.2825 19.9382 3.3398 0.0105692 0.000470646 -0.0011235
1949 1013 7 43.0777 21.0808 3.35599 -0.000870529 -0.00170066 0.00739229
1950 1013 6 43.6923 22.006 3.69391 -0.00216705 0.00363417 -0.00485518
1951 1014 6 32.8263 37.7864 3.74807 0.0121176 0.00101596 0.00437231
1952 1014 7 32.5892 38.2998 4.76057 -0.00334498 0.00300207 -0.000255708
1953 1014 6 32.5645 39.2031 5.48814 -0.00249966 0.00116976 0.00204775
1954 1015 6 36.0835 48.7895 15.4837 0.00108707 -0.000633791 -0.000298729
1955 1015 7 36.7319 47.8895 15.1314 -0.000342328 -0.00177448 -1.56503e-05
1956 1015 6 37.3727 47.5293 16.0309 -0.00053446 -0.00218108 -4.1592e-05
1957 1016 6 72.9315 29.5657 24.1179 -0.000780854 -0.00353942 -0.00533077
1958 1016 7 73.8764 29.1415 24.6422 0.000466045 0.00168482 -0.00335138
1959 1016 6 74.2242 29.1214 25.7491 -0.00201957 0.00308385 -0.00254481
1960 1017 6 63.0469 53.2519 28.9243 0.00399752 -0.00154779 -0.00581362
1961 1017 7 62.8584 53.066 27.795 0.00213695 -0.00316327 -0.00523701
1962 1017 6 62.7986 52.9801 26.6396 -0.00014424 -0.00433409 -0.00503191
1963 1018 6 54.0721 5.82644 3.58898 -0.00399081 0.00113262 0.00465106
1964 1018 7 53.1127 5.5465 3.00023 -0.00105383 -0.00148356 0.00110917
1965 1018 6 52.3757 4.99073 2.2951 0.00293495 -0.00373649 -0.00128441
ITEM: TIMESTEP
390000
ITEM: NUMBER OF ATOMS
57
ITEM: BOX BOUNDS xy xz yz pp pp pp
0.0000000000000000e+00 1.0131084100000001e+02 2.7630201000000000e+01
0.0000000000000000e+00 5.8491914999999999e+01 1.8420141000000001e+01
0.0000000000000000e+00 3.0080027000000001e+01 1.0634897000000000e+01
ITEM: ATOMS id mol type x y z vx vy vz
1909 1000 6 32.5209 25.1171 15.0052 0.00129996 -0.00143233 -0.00125794
1910 1000 7 31.5754 24.6765 14.4959 0.000156432 0.00288017 -0.00286522
1911 1000 6 30.4784 24.5475 14.8527 0.00101913 -0.000388581 -0.00139483
1912 1001 6 82.5417 39.9341 11.0319 0.000344437 0.00491225 -0.000585831
1913 1001 7 28.1767 40.2758 10.3762 0.00337351 -0.00238618 -0.000253419
1914 1001 6 29.2734 40.6508 10.4235 0.00370635 -0.00346184 0.000556776
1915 1002 6 18.1908 5.90471 3.41263 -0.00176904 -0.00131038 -0.000535806
1916 1002 7 17.9655 7.03667 3.29716 -0.00354124 -0.00164418 -0.000350624
1917 1002 6 17.6406 8.14174 3.43361 0.000323561 -0.000821244 0.00218785
1918 1003 6 65.9481 49.0204 17.54 -0.00136894 -3.94718e-05 0.000770849
1919 1003 7 65.0925 48.2676 17.3243 -0.00250378 -0.000193659 0.00580954
1920 1003 6 64.9802 47.1305 17.531 0.00305547 -0.00228893 -0.00269629
1921 1004 6 31.004 2.89111 1.31867 -0.00135592 0.00336565 -0.00313077
1922 1004 7 31.4971 3.46003 0.435199 0.00694544 0.000453272 -0.000372351
1923 1004 6 32.0875 4.45796 0.497745 0.00302727 0.00266523 0.0013176
1924 1005 6 69.768 15.1911 19.2899 0.0033662 -0.0059518 -0.00210092
1925 1005 7 69.3252 14.7594 20.2695 -0.00204263 -0.00219419 -0.00288979
1926 1005 6 68.2582 14.8599 19.8243 -5.66845e-05 0.00236027 -0.00662087
1927 1006 6 28.4041 11.801 12.2105 -0.00048594 0.00434838 0.00673452
1928 1006 7 29.512 11.7335 11.8718 -0.00578139 -0.00942373 -0.00783797
1929 1006 6 30.4288 11.1337 12.2565 -0.000861899 0.00269813 -0.000664575
1930 1007 6 34.0837 8.0516 17.7937 -0.000565784 -0.00484537 0.00309461
1931 1007 7 32.9678 8.044 18.1088 -0.0009655 0.00561431 0.00193127
1932 1007 6 32.2098 8.46423 17.3357 0.00256612 0.0021588 -0.00340936
1933 1008 6 17.2229 22.0826 8.44126 0.00212964 -0.00198868 0.00603703
1934 1008 7 71.3808 22.4334 8.5204 0.00208594 -0.00189938 0.00503238
1935 1008 6 70.4878 23.1533 8.70284 0.0021268 0.000938112 -0.0059641
1936 1009 6 18.7477 17.5952 8.98442 1.58535e-05 0.000719219 0.00423413
1937 1009 7 19.2338 18.6469 9.04259 0.00267121 -7.149e-05 -0.00366096
1938 1009 6 18.3576 19.2842 8.62497 0.00348729 -0.000741196 -0.00639508
1939 1010 6 81.2532 48.822 5.75657 -0.00145224 0.000134692 0.00118944
1940 1010 7 80.773 49.2951 4.81237 -0.00124576 0.00134209 0.00168928
1941 1010 6 52.72 2.3932 4.30784 -0.00176614 0.00183807 0.00306431
1942 1011 6 71.4251 29.6927 28.6956 0.000441786 0.000335913 0.007132
1943 1011 7 70.5508 28.9393 28.8109 -0.00547571 0.00662654 0.00337232
1944 1011 6 69.8508 28.1419 29.2811 -0.00070671 -0.00411333 -0.00774348
1945 1012 6 32.9004 15.3961 10.8151 -0.00397815 0.00653325 0.00352614
1946 1012 7 32.4215 14.6318 10.0857 -0.000708225 0.0031968 0.00487483
1947 1012 6 32.6129 13.6949 9.42885 0.0050073 0.00713014 0.000929661
1948 1013 6 51.9424 18.7968 2.65225 0.000665149 0.00245663 0.0013101
1949 1013 7 51.1729 18.2131 3.29632 0.003509 -0.0077617 -0.00455158
1950 1013 6 50.0456 17.9623 3.17648 0.00149022 -0.000595075 -0.000562248
1951 1014 6 30.2342 37.1111 20.3029 0.00460372 0.007168 0.00319031
1952 1014 7 30.4504 37.6781 19.3146 -0.00310549 0.00245582 -0.00119914
1953 1014 6 30.8111 37.7502 18.2144 -0.000573086 -0.000403558 -0.000556275
1954 1015 6 88.0091 49.6796 14.1504 -0.00467938 -0.00315057 0.0021857
1955 1015 7 87.5377 50.0834 15.1348 -0.00221152 0.00491864 5.70026e-05
1956 1015 6 86.8875 51.0098 14.873 0.0010182 0.00568768 -0.00524176
1957 1016 6 21.2022 19.6888 10.7138 -0.00319109 -0.00280454 -0.00305234
1958 1016 7 21.8331 20.3148 11.4606 -0.0025261 0.000220287 -0.00614961
1959 1016 6 22.8639 20.1408 11.9644 -0.0056932 -0.00140876 -0.000232324
1960 1017 6 36.9461 10.6298 25.504 0.00217349 0.00563815 -0.00327961
1961 1017 7 36.9103 10.0107 24.5237 -0.00394208 0.00821453 -0.00468317
1962 1017 6 37.0041 9.4819 23.4953 0.00300831 -0.00363799 0.00204542
1963 1018 6 5.95695 3.01848 1.56398 0.00417626 -0.00047072 -0.00334637
1964 1018 7 4.99403 3.59284 1.26688 0.005172 0.00462238 0.00327222
1965 1018 6 4.26556 4.31295 0.719081 0.00335631 0.00273106 0.00320051
ITEM: TIMESTEP
395000
ITEM: NUMBER OF ATOMS
57
ITEM: BOX BOUNDS xy xz yz pp pp pp
0.0000000000000000e+00 1.0131084100000001e+02 2.7630201000000000e+01
0.0000000000000000e+00 5.8491914999999999e+01 1.8420141000000001e+01
0.0000000000000000e+00 3.0080027000000001e+01 1.0634897000000000e+01
ITEM: ATOMS id mol type x y z vx vy vz
1909 1000 6 31.86 23.0029 18.1001 -0.00118904 0.00157148 -0.00171143
1910 1000 7 31.2892 23.6496 17.3233 0.000204794 0.00362461 -0.00102636
1911 1000 6 30.9087 24.746 17.3411 -0.00381722 0.00216397 0.0029434
1912 1001 6 29.6499 38.6711 8.14379 0.00669859 -0.0066823 0.00628419
1913 1001 7 29.2069 37.6013 8.05523 0.00237287 -0.00396372 -0.00491853
1914 1001 6 28.2136 37.0023 8.07363 0.000938682 -0.00144568 -0.000361708
1915 1002 6 29.7093 18.7699 22.1667 0.00036678 0.00715831 -0.00205251
1916 1002 7 29.6294 19.1596 23.2563 0.00192138 0.00756756 -0.00208493
1917 1002 6 29.7952 19.4348 24.3708 0.00128379 0.00352118 -0.000991089
1918 1003 6 64.7526 42.4963 13.4444 0.00147978 -0.00571479 -0.000653571
1919 1003 7 65.0355 43.4643 12.8715 -0.000292108 -0.00363472 0.00198631
1920 1003 6 64.3947 44.3105 12.4008 -0.00178538 -0.00256903 0.00593503
1921 1004 6 32.9068 2.47264 0.529106 -0.00250849 6.25229e-05 0.000412304
1922 1004 7 31.8721 2.91094 0.819994 -0.0042458 -0.00204099 -0.00259805
1923 1004 6 31.3368 3.81226 0.320576 -0.000825911 0.00218153 0.00135715
1924 1005 6 18.2951 15.2962 15.8967 -0.00100257 0.00663472 -0.00235786
1925 1005 7 17.2673 15.544 16.3702 0.000589064 0.00372796 0.00261822
1926 1005 6 16.7435 14.9141 15.5482 -0.00144368 0.000336138 0.00651297
1927 1006 6 25.5087 10.5046 13.814 -0.00204583 0.000792592 0.000580399
1928 1006 7 25.1414 10.6865 12.7283 -0.00521025 0.00280599 0.00198825
1929 1006 6 24.1286 10.5103 12.1887 -0.00479555 -0.00238456 0.00290406
1930 1007 6 26.4212 10.5836 20.2304 -0.00713519 -0.00126205 -0.00247806
1931 1007 7 26.1481 11.5758 20.7649 0.0043778 0.00124841 -0.0012554
1932 1007 6 25.9627 11.5119 21.9096 6.46121e-05 0.00133741 -0.00194907
1933 1008 6 69.0159 24.0294 9.60029 0.00524492 0.00030763 0.00361982
1934 1008 7 69.7731 23.2159 9.26893 0.00531036 0.00129041 0.00135664
1935 1008 6 70.2785 22.4279 8.58148 0.00183727 -0.000945172 0.00136641
1936 1009 6 18.5703 21.2636 7.39344 0.000883332 0.00175762 0.00490691
1937 1009 7 18.5491 20.5953 8.34145 -0.000519178 0.00101818 0.00435432
1938 1009 6 19.5346 20.948 8.84418 -0.000275496 -0.000765626 0.00512825
1939 1010 6 52.9638 2.29545 5.03256 -0.00136153 0.000404985 0.00132982
1940 1010 7 52.298 2.39015 4.08721 -0.000606548 0.00109044 0.000866788
1941 1010 6 51.324 2.07011 3.54447 -7.21302e-05 0.00132439 -0.000230199
1942 1011 6 68.8265 29.1234 20.9112 0.00602026 0.00561078 0.0020206
1943 1011 7 68.2377 28.8205 21.8634 0.0044109 0.00514704 0.000877929
1944 1011 6 67.9442 28.2517 22.8316 0.00427371 0.00643039 0.00159024
1945 1012 6 33.2453 15.9114 12.2502 -0.00119334 0.00109209 0.00292743
1946 1012 7 33.2801 17.0248 11.9267 0.00419073 0.000580997 0.00174745
1947 1012 6 32.837 18.0819 12.1061 0.00677118 0.00227309 -0.00184959
1948 1013 6 55.2593 21.678 9.02458 0.00190332 0.00259538 0.00334705
1949 1013 7 56.311 21.7945 8.5472 0.00142992 -0.00313546 0.00090523
1950 1013 6 57.3669 22.0298 8.96881 0.00139447 0.0045876 -0.00331591
1951 1014 6 36.8901 40.9907 11.6618 0.00558492 -0.00263538 -0.000909216
1952 1014 7 37.6447 40.2669 11.1602 0.00510703 -0.00203139 -0.00249959
1953 1014 6 37.9492 39.4432 10.4022 0.00392778 -0.00253394 -0.00242719
1954 1015 6 58.8169 4.71152 12.4846 0.00485607 0.00435156 0.00259884
1955 1015 7 86.9387 51.7552 11.8129 0.00127297 0.00341452 0.00111098
1956 1015 6 87.9762 51.4904 12.2635 5.57703e-06 -0.00215056 0.000759021
1957 1016 6 22.3167 20.114 10.5468 -0.00479121 -0.00100734 -0.00514604
1958 1016 7 21.2571 20.4798 10.8488 -0.00375196 0.000699287 -0.00356701
1959 1016 6 20.7404 20.6443 11.8748 -0.00384528 -0.00386526 -0.00288179
1960 1017 6 62.2263 52.9408 27.3886 0.00249199 -0.00183126 -0.00107769
1961 1017 7 61.6115 53.9228 27.3321 -0.00335251 -0.00501562 0.00717276
1962 1017 6 61.1256 54.9762 27.3502 -0.00387438 -0.00519055 0.00334449
1963 1018 6 23.3227 17.476 24.9745 0.000113907 0.00013052 -0.00330513
1964 1018 7 22.4134 16.9982 25.5132 0.00275858 0.00139122 0.00227745
1965 1018 6 21.5394 16.2778 25.7708 -0.00130155 0.00674806 0.00348195
ITEM: TIMESTEP
400000
ITEM: NUMBER OF ATOMS
57
ITEM: BOX BOUNDS xy xz yz pp pp pp
0.0000000000000000e+00 1.0131084100000001e+02 2.7630201000000000e+01
0.0000000000000000e+00 5.8491914999999999e+01 1.8420141000000001e+01
0.0000000000000000e+00 3.0080027000000001e+01 1.0634897000000000e+01
ITEM: ATOMS id mol type x y z vx vy vz
1909 1000 6 32.3415 23.8275 19.1162 -0.00106693 -0.00209205 -0.00260805
1910 1000 7 31.4856 23.3206 18.5179 -0.00466064 -0.00120559 0.00178168
1911 1000 6 30.8156 23.6849 17.6429 -0.00187079 -0.00414181 -0.00157712
1912 1001 6 77.7795 35.1362 13.6803 0.00120041 -0.00325481 0.000627662
1913 1001 7 77.9388 34.0732 14.1197 0.00504897 -0.00202694 0.00220253
1914 1001 6 77.7554 33.4193 15.0602 0.0105841 -0.00027307 0.00450191
1915 1002 6 25.7364 19.5487 21.1581 -0.00280412 0.00571785 -0.00868005
1916 1002 7 26.7937 19.1019 20.9914 -0.00212511 0.00444965 -0.000974553
1917 1002 6 27.8353 18.6013 21.0911 -0.0043156 0.00131776 0.00618579
1918 1003 6 66.5087 42.2279 11.7608 0.00397081 0.010615 -0.0047385
1919 1003 7 65.594 42.9387 11.8197 -0.00248602 0.00191838 -6.53843e-05
1920 1003 6 65.1721 43.6018 12.6745 -0.00277408 0.000104126 0.0011999
1921 1004 6 35.8485 3.70552 4.91586 0.00329706 -0.000543672 -4.47455e-05
1922 1004 7 36.3486 3.89773 5.94562 -0.000722369 -0.00233963 0.00224227
1923 1004 6 37.0917 3.19563 6.49624 0.00687816 0.00246245 -0.00189174
1924 1005 6 73.7809 30.3945 18.9473 0.005914 0.00949032 0.001192
1925 1005 7 72.9447 30.5121 19.7404 0.00185866 -0.000637986 -0.00158213
1926 1005 6 72.554 31.4504 19.1802 -0.00777862 -0.00549563 -0.00299727
1927 1006 6 23.0541 7.11411 14.5829 -0.00459308 -0.00227945 -0.00477362
1928 1006 7 22.1556 7.04449 15.314 1.39372e-06 -0.00287674 0.000815763
1929 1006 6 21.9827 7.40955 16.4026 0.00242904 0.00720153 -0.00217846
1930 1007 6 25.4094 9.6192 13.3607 -0.000400049 -0.00104982 -0.00359532
1931 1007 7 26.0327 10.5567 13.6389 -0.000313838 -0.00328939 0.00375681
1932 1007 6 27.0962 10.6256 13.1774 -0.000597816 0.000607591 0.00368453
1933 1008 6 71.9642 25.7356 11.0908 0.00100553 0.00237147 0.000263174
1934 1008 7 72.7284 24.8933 10.864 -0.00667027 -0.00283086 -0.0062768
1935 1008 6 18.4023 24.379 10.4042 -0.00292455 -0.00343404 0.00201008
1936 1009 6 20.5462 22.3868 8.68974 0.00365155 -0.00592971 -0.00168566
1937 1009 7 20.8986 23.1385 7.87945 0.00110951 -0.00324238 -0.000298366
1938 1009 6 21.889 23.4951 8.3695 -0.0020755 0.00213922 0.00222307
1939 1010 6 83.0812 47.317 6.95731 -0.000356666 -0.003387 -0.00262031
1940 1010 7 84.088 47.345 6.38158 1.4531e-05 -0.00460283 -0.00203038
1941 1010 6 84.7024 46.9677 5.4729 0.000282337 -0.00578646 -0.00135783
1942 1011 6 68.9149 36.8175 11.6383 -0.00210116 0.00501661 -7.33218e-05
1943 1011 7 69.9816 37.2681 11.5725 0.0017302 -0.0044525 -0.00281026
1944 1011 6 70.8617 37.9479 11.2404 0.00378101 -0.0034203 0.00473841
1945 1012 6 31.1819 17.0484 18.5956 0.00136146 0.00194486 -0.000880661
1946 1012 7 31.8882 17.7432 19.1989 0.0061247 -0.00108917 -0.00296317
1947 1012 6 32.278 18.829 19.3212 0.00518252 -0.00120646 0.00108065
1948 1013 6 57.2973 19.5469 9.83775 0.00346533 -0.00154259 -0.00315572
1949 1013 7 57.1951 18.5878 10.4838 -0.00262587 -0.0011821 -0.00358429
1950 1013 6 56.37 17.7799 10.6037 -0.00650481 0.00240198 -0.00612635
1951 1014 6 40.627 33.1117 12.1809 -0.000855466 -0.00570936 0.00783118
1952 1014 7 41.3481 32.2836 11.8079 0.000787611 -0.00110254 0.000779591
1953 1014 6 42.3517 31.8967 11.3732 0.00263765 0.00428509 0.000255537
1954 1015 6 62.0914 10.3702 15.0704 0.000775622 0.00594681 -0.00472509
1955 1015 7 60.9579 10.402 14.8085 -0.000789134 0.00753023 0.0022389
1956 1015 6 60.4962 9.36782 15.0669 0.00115564 0.00533622 -0.00306739
1957 1016 6 23.5915 18.8949 17.0878 -0.00121089 -0.00107917 0.000505969
1958 1016 7 24.6291 18.3907 16.9573 0.00233716 0.00550497 0.00327811
1959 1016 6 25.2737 17.7183 17.6494 0.000673065 0.00209692 0.00151695
1960 1017 6 38.2118 10.7989 24.679 -0.000376298 -0.00205705 0.000173714
1961 1017 7 38.3187 11.9518 24.7486 -0.00128889 -0.0019899 0.000462213
1962 1017 6 38.2644 13.1058 24.8545 -0.00107177 -0.00246814 0.00578661
1963 1018 6 20.5862 13.9848 26.7602 -0.00150705 -0.000603273 0.00265684
1964 1018 7 21.4319 13.8759 27.5465 1.60262e-05 0.000688333 0.00119752
1965 1018 6 22.4766 13.9128 28.0531 0.00144411 -0.000564519 -0.0016559
ITEM: TIMESTEP
405000
ITEM: NUMBER OF ATOMS
57
ITEM: BOX BOUNDS xy xz yz pp pp pp
0.0000000000000000e+00 1.0131084100000001e+02 2.7630201000000000e+01
0.0000000000000000e+00 5.8491914999999999e+01 1.8420141000000001e+01
0.0000000000000000e+00 3.0080027000000001e+01 1.0634897000000000e+01
ITEM: ATOMS id mol type x y z vx vy vz
1909 1000 6 37.2773 24.2827 20.7844 0.00255123 -0.00237243 -0.00366622
1910 1000 7 36.804 23.8213 21.7386 0.00324455 0.00317415 -0.000639842
1911 1000 6 36.2796 22.8063 21.9437 0.0032366 0.00443899 0.00559867
1912 1001 6 39.6936 33.4136 15.6215 -0.00380191 -0.00597494 -0.00952877
1913 1001 7 39.6103 34.1922 14.7639 -0.00389816 -0.000179933 -0.00425793
1914 1001 6 40.2303 34.915 14.1014 -0.00255842 -0.00368388 -0.00682677
1915 1002 6 68.5507 20.0749 14.3311 0.000813981 0.00501172 0.00336183
1916 1002 7 68.4413 20.4648 13.2441 0.00169563 0.00188727 0.0021525
1917 1002 6 68.3286 21.0981 12.2789 0.00856323 -0.000555251 -0.000252612
1918 1003 6 61.8567 43.3664 11.1143 -0.00288016 0.000458984 0.00315454
1919 1003 7 62.8126 43.8907 11.5103 0.000826903 -0.00263328 -0.00170006
1920 1003 6 63.4564 43.7283 12.4628 -0.00227423 0.00390614 0.00151051
1921 1004 6 84.1692 54.1269 29.7091 0.00107232 -0.00520817 0.000498631
1922 1004 7 65.332 43.3843 0.706933 0.00305525 -0.000439716 0.00174243
1923 1004 6 64.6196 44.1226 1.25065 0.000119809 -0.000527149 -0.00198507
1924 1005 6 30.3768 32.9667 15.0982 0.00710728 0.00408893 0.000224715
1925 1005 7 30.9305 31.9528 15.1848 0.00475396 0.00234325 -0.00516559
1926 1005 6 30.3206 31.5497 14.2834 -0.00415029 0.00480301 -0.000240922
1927 1006 6 21.8409 8.75835 17.1937 0.00230403 0.00348 0.00334598
1928 1006 7 21.6476 7.62727 17.0207 -0.00418016 0.00495231 0.000966317
1929 1006 6 21.8607 6.67589 17.6513 -0.0044445 0.0019008 -0.00354814
1930 1007 6 25.536 11.0362 15.798 0.0022793 -0.00373473 -0.000930238
1931 1007 7 24.8283 10.6665 14.957 0.00133332 -0.00460222 0.000247255
1932 1007 6 24.6867 9.51715 14.8693 -0.0008433 -0.00456575 0.00328499
1933 1008 6 74.3182 26.1218 11.2676 -0.000360974 0.00134411 0.00210581
1934 1008 7 20.0612 26.071 11.8466 7.37822e-05 0.00093968 0.00131681
1935 1008 6 21.1035 26.4096 12.2312 0.0018409 -0.000820709 -0.0019224
1936 1009 6 20.3991 21.1791 8.70837 0.00334097 -0.000191945 -0.000338156
1937 1009 7 19.2567 21.2976 8.87213 0.00395469 0.00203916 0.00232865
1938 1009 6 19.1443 22.4245 8.61605 0.00558672 0.00230043 0.00276204
1939 1010 6 18.6151 11.6198 28.4454 6.43241e-05 -0.00179395 -0.00119124
1940 1010 7 19.4028 11.3772 27.629 0.00291049 0.00297691 0.000137288
1941 1010 6 20.2454 10.6666 27.2676 -0.000505729 0.00125996 -0.00445171
1942 1011 6 59.8038 32.8311 20.5687 -0.000188318 -0.00406119 0.00296399
1943 1011 7 58.8437 32.7639 21.216 0.000145422 0.00379096 0.00427427
1944 1011 6 57.7433 32.9066 21.556 -0.00153841 0.00169131 -0.000293529
1945 1012 6 37.8736 16.9933 18.6091 7.69165e-05 0.000564928 0.00258343
1946 1012 7 38.8568 17.606 18.6679 0.000157389 0.000854866 -0.00178619
1947 1012 6 39.9683 17.5915 18.9999 -0.00050855 0.00392571 0.000577082
1948 1013 6 55.9734 22.5175 10.0114 -0.00173171 -0.000417414 -0.00235359
1949 1013 7 54.9241 22.9798 9.83013 -0.000373652 0.00278965 -0.00203454
1950 1013 6 53.9805 22.6358 9.24771 -0.00297414 0.0038533 0.00155038
1951 1014 6 43.5738 31.983 16.6676 -0.00031796 -0.00210874 -0.000409057
1952 1014 7 44.3102 31.3193 16.0658 -0.000565578 -0.00304268 0.000317903
1953 1014 6 45.2263 30.6157 15.9584 0.00445804 0.00358598 -0.000259347
1954 1015 6 17.9723 16.6302 8.98947 -0.00102254 0.00176088 -0.00268873
1955 1015 7 18.1856 17.598 9.59964 0.00316201 0.000537376 -0.00221062
1956 1015 6 18.7639 18.3383 8.91622 0.00156324 0.000524414 -0.00357761
1957 1016 6 22.5808 18.9427 11.0138 -0.00591027 -0.00274659 0.000605982
1958 1016 7 21.5105 18.9475 10.5641 -0.00580212 0.00471987 0.000427027
1959 1016 6 20.4682 19.1998 11.0072 -0.00497074 0.00501641 0.00221392
1960 1017 6 35.7025 11.5626 23.5261 0.00413345 0.00137498 0.00128124
1961 1017 7 34.7374 12.2057 23.5068 0.00461906 0.00208878 0.000785375
1962 1017 6 33.767 12.825 23.6507 0.00259605 -0.000823749 -0.000322624
1963 1018 6 54.6014 7.07195 0.938529 -0.00109206 0.00125181 0.00558455
1964 1018 7 53.9165 6.13828 1.00551 -0.00319146 0.00249779 0.00148482
1965 1018 6 53.0722 5.41287 1.33763 -0.00230027 0.00128919 0.00111047
ITEM: TIMESTEP
410000
ITEM: NUMBER OF ATOMS
57
ITEM: BOX BOUNDS xy xz yz pp pp pp
0.0000000000000000e+00 1.0131084100000001e+02 2.7630201000000000e+01
0.0000000000000000e+00 5.8491914999999999e+01 1.8420141000000001e+01
0.0000000000000000e+00 3.0080027000000001e+01 1.0634897000000000e+01
ITEM: ATOMS id mol type x y z vx vy vz
1909 1000 6 39.52 18.5438 20.5759 0.000648861 -0.00405482 0.0044564
1910 1000 7 40.0047 19.3912 21.2038 -0.00102679 -0.00104326 0.00168563
1911 1000 6 41.0233 19.4778 21.7535 -0.00021723 0.00365796 -0.000555298
1912 1001 6 53.4344 39.5095 10.8774 0.0082108 -0.00587123 9.45073e-05
1913 1001 7 52.7523 39.1262 10.0193 0.00163488 0.0037644 0.00101781
1914 1001 6 52.6618 39.0563 8.86491 0.000149884 0.00306489 0.00117662
1915 1002 6 66.314 21.1195 19.5493 0.000891843 -0.00102965 -0.0028766
1916 1002 7 67.0725 21.9554 19.2822 -0.00225558 0.00203169 -0.00223481
1917 1002 6 67.9459 22.5949 18.8655 -0.000467183 0.00368194 0.00404659
1918 1003 6 59.4196 41.1389 18.1082 -0.00357915 -0.00128998 0.0020044
1919 1003 7 60.4997 41.342 17.7372 -0.00321468 -0.00330275 0.00196322
1920 1003 6 60.9208 41.7151 16.7214 -0.0025119 -0.00472884 0.00173088
1921 1004 6 61.2793 45.8949 4.25625 0.00203955 -0.00127644 -0.00561434
1922 1004 7 60.6729 45.0552 4.78023 0.00225758 5.72239e-05 -0.00322468
1923 1004 6 59.5219 44.9063 4.74335 0.00220787 0.000160592 -0.00209053
1924 1005 6 26.982 30.7341 15.968 -0.0041187 2.15798e-05 0.00391621
1925 1005 7 26.4095 30.7754 14.9617 0.0021639 -0.00707902 5.01148e-05
1926 1005 6 26.4827 31.9336 14.9746 -0.00392763 -0.00664629 -0.00423114
1927 1006 6 49.0409 53.5797 18.9695 0.000816169 -0.00322554 -0.00326205
1928 1006 7 48.0183 53.7796 19.4805 0.000196366 0.000932875 -0.00612816
1929 1006 6 47.0525 53.1476 19.6067 -7.84922e-06 0.00201361 -0.00228015
1930 1007 6 21.1946 5.1085 10.8741 0.00626361 -0.00533486 0.00546723
1931 1007 7 21.7338 5.68605 11.7229 0.00496496 0.00515223 -0.000843342
1932 1007 6 21.0535 6.23868 12.4848 0.00334256 -0.000963344 0.00214388
1933 1008 6 19.7574 22.8622 12.604 -0.0010877 -0.00401649 -0.00259217
1934 1008 7 20.5798 23.6797 12.5891 -0.000841103 -0.00426672 -0.00270879
1935 1008 6 21.0801 24.7032 12.3631 -0.00121262 -0.00373384 -0.00111773
1936 1009 6 21.9283 24.8763 9.14607 0.00213921 0.00354755 0.006154
1937 1009 7 22.7089 24.2106 9.68755 0.000181088 -0.00516937 -0.00173979
1938 1009 6 23.6189 24.3761 8.98549 0.000666636 0.000475366 0.000220323
1939 1010 6 72.9119 15.7219 29.6722 0.00610391 -0.00238773 -0.00179854
1940 1010 7 55.3049 4.50509 0.180489 -0.00105586 -0.00363151 0.00686658
1941 1010 6 55.7242 3.47253 0.502372 0.00397978 -0.00463232 -0.00290387
1942 1011 6 57.0598 39.8162 25.8854 0.00485453 0.00587337 0.00333766
1943 1011 7 57.5809 38.8794 26.3283 0.00131349 0.00392844 0.00339005
1944 1011 6 58.1864 38.2076 27.0555 -0.00529601 0.000505337 0.00573104
1945 1012 6 36.3637 19.3317 19.381 -0.0075519 0.000634041 -0.00231459
1946 1012 7 36.3417 18.3515 18.7611 -0.00253164 -0.000785585 -0.000247347
1947 1012 6 35.8204 17.3242 18.6238 0.00223782 -0.00343181 0.00144066
1948 1013 6 55.2149 20.4487 9.31767 0.00786614 -0.00133976 -0.00460287
1949 1013 7 55.3982 21.5538 9.01331 0.000413136 0.0017872 0.00226175
1950 1013 6 54.762 22.3562 8.46617 -0.00153902 -0.00192539 -0.000912783
1951 1014 6 44.1159 33.0505 18.3284 -0.000412216 0.000252243 0.00318273
1952 1014 7 44.7852 32.1117 18.2024 -0.00144726 -0.000218539 0.00119204
1953 1014 6 44.9963 30.9718 18.2435 -0.00183737 -0.000281073 0.00146196
1954 1015 6 69.4741 22.171 10.5263 0.0112903 -0.00309428 -0.00283729
1955 1015 7 69.7947 21.7218 11.5509 0.00207969 5.31189e-05 0.0014244
1956 1015 6 69.328 20.6621 11.645 0.00349601 -0.000759699 -0.000706097
1957 1016 6 68.0479 25.2873 14.029 0.00104372 0.002027 -0.00274184
1958 1016 7 68.9907 24.7113 14.3855 1.06009e-05 0.00444728 0.00390179
1959 1016 6 69.3755 23.6326 14.1987 0.0088293 0.00844804 -0.0010359
1960 1017 6 34.8914 12.1959 23.1436 0.000345678 -0.00163971 -0.000506729
1961 1017 7 33.9239 12.709 22.7613 0.000292325 -0.000345997 0.00136447
1962 1017 6 32.8752 13.1015 22.4576 0.000366771 -0.00149584 -0.0003788
1963 1018 6 95.6681 55.9069 29.6217 -0.00486337 -0.00818406 0.00190316
1964 1018 7 77.5242 45.6678 0.59645 -0.00243254 -0.00459626 -7.96423e-05
1965 1018 6 77.7121 46.3874 1.48876 -0.00344808 -0.0019268 -0.00201855
ITEM: TIMESTEP
415000
ITEM: NUMBER OF ATOMS
57
ITEM: BOX BOUNDS xy xz yz pp pp pp
0.0000000000000000e+00 1.0131084100000001e+02 2.7630201000000000e+01
0.0000000000000000e+00 5.8491914999999999e+01 1.8420141000000001e+01
0.0000000000000000e+00 3.0080027000000001e+01 1.0634897000000000e+01
ITEM: ATOMS id mol type x y z vx vy vz
1909 1000 6 31.7956 21.3317 19.2114 -0.00324843 0.00198527 -0.00267301
1910 1000 7 32.6872 21.9505 18.7996 -0.00274196 0.00333362 0.000449036
1911 1000 6 32.9488 22.3417 17.7385 0.00129558 0.0021829 0.00102005
1912 1001 6 50.0786 30.7402 10.1839 -0.00602816 0.000233272 -0.00236509
1913 1001 7 50.3829 29.7285 9.70181 -0.000442975 0.00120918 -0.000887013
1914 1001 6 50.0444 28.6283 9.55845 0.00258716 0.00076451 -0.00463025
1915 1002 6 68.3312 23.1056 15.0422 -0.00171999 -0.00228265 0.00046469
1916 1002 7 68.0403 23.3029 16.1476 0.00325549 0.000332071 0.00130708
1917 1002 6 67.6653 23.7396 17.1546 -0.00361746 -0.00217035 -0.000167096
1918 1003 6 62.1088 42.7602 18.9677 0.000432152 0.00308552 0.00117914
1919 1003 7 61.2715 42.0517 18.5904 0.000934456 0.00291444 0.000385641
1920 1003 6 60.7344 41.9511 17.5658 0.0076436 -0.00264153 -0.00258561
1921 1004 6 63.7675 42.6141 1.07404 -0.00393343 -0.00662454 -0.00200459
1922 1004 7 63.9526 42.5335 2.21713 0.000230405 -0.000734605 -0.00226319
1923 1004 6 64.1873 41.5654 2.81387 0.00203501 0.00228514 0.00192564
1924 1005 6 81.9016 35.3748 19.8208 -0.00109172 0.00165098 0.00231313
1925 1005 7 82.4787 34.795 20.641 0.00458797 -0.00028627 -0.00305324
1926 1005 6 83.2219 34.4097 19.8371 0.00146953 0.0049733 -0.00845645
1927 1006 6 21.9807 8.35884 15.8385 -0.000296771 -0.000176969 0.00026103
1928 1006 7 21.7788 8.70338 14.7489 -0.00281081 -0.00421856 -0.00055111
1929 1006 6 22.4542 8.82396 13.8121 -0.00411537 -0.00355122 -0.0014058
1930 1007 6 50.03 51.6729 13.8213 -2.43788e-05 -0.00606292 0.00252499
1931 1007 7 50.8621 51.1131 14.4036 0.00132765 -0.000910705 0.00554565
1932 1007 6 50.5296 50.542 15.3585 0.00265877 0.00320288 0.0084693
1933 1008 6 68.6005 22.006 10.2557 -0.00415264 -0.000149201 -0.0051436
1934 1008 7 67.5351 21.8283 10.6778 -0.00510101 -0.003869 -0.0091038
1935 1008 6 66.6518 21.2605 11.1743 -0.000975228 -0.00283974 -0.000586638
1936 1009 6 19.2102 16.0113 18.3534 0.000274616 -0.00568206 0.00663632
1937 1009 7 19.7984 16.9912 18.553 0.00473389 -0.00852793 0.00746726
1938 1009 6 20.4793 16.9985 17.6125 -0.000525351 -0.00687834 0.00367244
1939 1010 6 4.38098 4.17618 2.49095 0.00130767 -7.49813e-05 -0.0030275
1940 1010 7 59.2478 4.64277 3.47746 0.00494687 -0.00475404 0.000637802
1941 1010 6 58.9807 5.6095 4.06032 0.000637022 -0.00784105 0.00378297
1942 1011 6 51.7048 43.2163 25.3991 0.000373418 0.00472093 0.00173965
1943 1011 7 50.6811 43.7561 25.3212 -0.0030785 -0.00111177 0.00668454
1944 1011 6 49.6277 44.0496 24.9325 0.00142739 0.00649511 0.000216183
1945 1012 6 34.8038 20.8244 21.1314 -0.00577087 0.00259025 0.00533783
1946 1012 7 34.4068 19.8049 21.5167 8.87639e-05 -0.000252113 0.00385354
1947 1012 6 33.6053 19.2826 22.173 -0.00168378 -0.00630727 -0.00312898
1948 1013 6 56.3919 29.8451 18.719 0.00279597 -0.00317755 0.00215347
1949 1013 7 55.6295 30.1334 19.5456 0.00181087 -0.000164628 0.000194055
1950 1013 6 54.6213 30.7092 19.548 0.00403363 0.00373886 -0.00241154
1951 1014 6 46.3923 30.767 15.1375 0.00399298 0.000391101 4.15521e-05
1952 1014 7 46.6287 31.0253 14.0319 -0.00300512 -0.00240482 -0.00210772
1953 1014 6 47.2271 30.9185 13.0439 -0.00642899 -0.00165798 -0.00426227
1954 1015 6 20.0065 18.9423 9.91753 0.00435877 0.00210779 -0.00317147
1955 1015 7 20.7364 18.0871 10.2183 0.000629758 -0.000367216 -0.00115916
1956 1015 6 21.0221 18.2294 11.3353 -0.00559699 -0.00398856 0.000894711
1957 1016 6 73.783 28.5836 12.547 0.0102836 0.00521165 -0.00355865
1958 1016 7 74.4775 27.8271 13.0883 0.00540101 0.000588778 -0.0037548
1959 1016 6 74.3741 27.2253 14.075 0.000566384 -0.000674668 -0.0050319
1960 1017 6 37.5903 11.3626 22.9008 0.00384141 0.00119748 -0.00393591
1961 1017 7 38.4911 11.7859 23.4965 -0.000329198 -2.4621e-05 0.0032394
1962 1017 6 39.446 12.0533 24.0987 0.00217354 0.000587874 -0.00100076
1963 1018 6 45.6701 55.185 25.0344 0.00192807 0.00369278 -0.000638666
1964 1018 7 44.5283 55.0189 25.1529 0.00183182 -0.00102705 -0.00818264
1965 1018 6 43.5053 54.5137 25.3712 0.00386921 0.0022817 0.00902778
ITEM: TIMESTEP
420000
ITEM: NUMBER OF ATOMS
57
ITEM: BOX BOUNDS xy xz yz pp pp pp
0.0000000000000000e+00 1.0131084100000001e+02 2.7630201000000000e+01
0.0000000000000000e+00 5.8491914999999999e+01 1.8420141000000001e+01
0.0000000000000000e+00 3.0080027000000001e+01 1.0634897000000000e+01
ITEM: ATOMS id mol type x y z vx vy vz
1909 1000 6 36.7752 25.1656 21.1084 0.00264467 0.00288324 0.000419604
1910 1000 7 36.4502 26.2724 20.9797 -0.000398629 0.00191199 -0.000247952
1911 1000 6 36.4699 27.1857 21.6957 -0.00474807 0.00193319 -0.000155165
1912 1001 6 48.1596 39.191 8.88481 0.00366252 -0.0044875 -0.000463283
1913 1001 7 47.4908 38.2808 8.61517 -0.00464019 0.000636777 0.00283129
1914 1001 6 47.1095 37.6382 7.72782 -0.00151428 -0.00604751 0.00632876
1915 1002 6 69.873 25.667 17.455 0.0021317 -0.00158041 -0.00185601
1916 1002 7 68.7259 25.5311 17.561 0.00237383 -1.13917e-05 0.00277836
1917 1002 6 67.645 25.1328 17.6968 0.00182273 0.000500971 -0.00010422
1918 1003 6 58.5264 39.4283 18.0082 0.00241679 -0.00489538 0.00340189
1919 1003 7 58.0554 38.5924 18.66 0.000510887 -0.00648422 -1.27224e-05
1920 1003 6 58.4956 37.6277 19.1332 0.00156262 -0.00231421 0.00750953
1921 1004 6 66.0377 38.1981 9.70062 0.00657532 -0.00224012 -0.00400675
1922 1004 7 65.3615 37.2744 9.50813 -0.000121564 0.00146181 0.00175329
1923 1004 6 64.3143 37.2755 9.00652 0.00188538 0.00533313 -0.00242825
1924 1005 6 81.3652 35.3495 20.3258 0.00208222 -0.00238364 0.0015791
1925 1005 7 80.508 35.8633 20.9118 0.00198473 -0.00036316 -0.000334927
1926 1005 6 79.7892 35.6644 20.0226 0.00220341 -0.00318327 0.000119073
1927 1006 6 25.6799 9.32718 15.1683 -0.00102036 0.00188835 -0.00108915
1928 1006 7 26.2337 10.2721 15.5516 0.0010948 0.00185969 -0.00407385
1929 1006 6 26.1371 11.4047 15.3146 -2.24932e-05 0.00185013 -0.00366427
1930 1007 6 48.1427 40.3801 16.9007 0.00295416 -0.000877255 -8.65797e-05
1931 1007 7 48.9649 40.5389 17.7029 0.00189705 0.00179936 0.000467002
1932 1007 6 48.657 41.1434 18.6455 0.00073915 0.00520109 -0.00209282
1933 1008 6 73.6497 28.4447 12.8815 0.0011618 -0.00567646 0.000241776
1934 1008 7 73.7731 28.1148 13.9864 0.000156088 -0.00421502 0.000790464
1935 1008 6 73.9081 28.2195 15.1352 0.000343995 -0.00271379 0.000631608
1936 1009 6 19.6026 21.9933 8.45087 -0.00183413 0.00154652 -0.00104984
1937 1009 7 20.2526 21.075 8.73401 0.00159278 0.00347248 -0.00267123
1938 1009 6 21.2185 21.6235 9.07238 0.0013744 0.00626965 -0.00658204
1939 1010 6 5.07167 2.92871 0.757868 0.00651382 0.00571824 -0.00280808
1940 1010 7 5.4941 2.85185 1.83561 -0.00409591 0.00223471 0.00110199
1941 1010 6 5.76944 2.16409 2.72824 0.000412791 -0.00223823 -0.0037351
1942 1011 6 52.4321 47.8866 28.1071 0.00524109 -0.00379217 0.00153461
1943 1011 7 51.326 47.5405 28.1507 0.00403001 -0.000489551 -0.00297044
1944 1011 6 50.402 46.8445 28.2449 0.00154948 0.00282055 -0.00284392
1945 1012 6 36.8819 21.7373 22.2195 0.001696 -0.00229516 0.00319865
1946 1012 7 36.873 20.8456 21.4777 0.00421385 -0.000402137 0.000893271
1947 1012 6 36.9646 19.6938 21.3735 0.0016166 -0.000403262 -0.00137918
1948 1013 6 64.8023 26.6421 22.8499 0.00196448 -0.00149918 0.00168571
1949 1013 7 65.1865 25.6708 23.3564 0.00628995 -0.000837337 -0.000326954
1950 1013 6 65.2563 25.308 24.457 0.00713722 -0.00314381 -0.0011409
1951 1014 6 50.4836 36.8142 12.9818 0.00241131 -0.00776356 0.00195002
1952 1014 7 51.0385 37.5519 13.6837 -0.00148684 -0.00341435 0.000460442
1953 1014 6 51.6271 37.8309 14.6437 -0.00301661 0.00164662 -7.22586e-05
1954 1015 6 73.4159 23.7012 11.2685 0.00260769 -0.00558079 -0.00682351
1955 1015 7 73.5966 24.2751 10.2722 0.00081581 -0.00179527 -0.00496817
1956 1015 6 19.0725 25.1481 10.4844 -0.000249501 -0.00147474 -0.00258885
1957 1016 6 22.856 25.1217 14.5947 -0.00101151 -0.00491149 0.00299066
1958 1016 7 21.7357 25.426 14.5882 -0.000209416 -0.00198524 0.00169918
1959 1016 6 76.4187 26.3249 15.041 0.0015304 -0.000783983 0.00153328
1960 1017 6 37.5232 10.7489 22.9334 -0.000359194 0.000362325 -0.00538427
1961 1017 7 38.334 11.5013 23.2826 -0.000131931 -0.0039579 0.00339376
1962 1017 6 39.2506 12.163 23.5432 -0.00312857 0.0026336 -0.00280611
1963 1018 6 19.4851 13.279 26.0142 -0.00263064 -0.00131187 0.00164477
1964 1018 7 18.7502 13.4848 25.1407 -0.00457415 0.00555492 0.00489767
1965 1018 6 73.0922 13.4119 24.4334 0.00385375 -0.0023939 -0.00522898
ITEM: TIMESTEP
425000
ITEM: NUMBER OF ATOMS
57
ITEM: BOX BOUNDS xy xz yz pp pp pp
0.0000000000000000e+00 1.0131084100000001e+02 2.7630201000000000e+01
0.0000000000000000e+00 5.8491914999999999e+01 1.8420141000000001e+01
0.0000000000000000e+00 3.0080027000000001e+01 1.0634897000000000e+01
ITEM: ATOMS id mol type x y z vx vy vz
1909 1000 6 33.1101 18.693 21.6175 -0.00318047 -0.00329578 -0.00254347
1910 1000 7 33.7353 19.5125 21.0837 -0.00190943 -0.00204649 0.000863359
1911 1000 6 33.4777 20.2812 20.2531 0.000502108 -0.0011558 0.000939803
1912 1001 6 53.6205 41.304 7.34755 -0.00398454 0.00569054 -0.00365525
1913 1001 7 53.5467 41.2576 6.18956 0.00161757 -0.00137747 -0.00372858
1914 1001 6 54.1563 41.4009 5.21307 0.00472093 -0.00137006 -0.00179015
1915 1002 6 70.652 24.7545 19.2563 -0.00299399 0.00192391 0.00139894
1916 1002 7 69.7318 24.8524 18.5569 -0.0033638 0.0006762 0.00171069
1917 1002 6 68.7529 24.7023 17.9531 -0.000421228 -0.0029638 -0.00215443
1918 1003 6 58.4859 40.1849 14.4448 0.00243746 0.000621799 -0.00192035
1919 1003 7 58.4625 40.701 15.4834 0.00363814 -6.64379e-05 -0.0015513
1920 1003 6 58.298 40.2909 16.5572 0.00748119 -0.00116483 -0.00138195
1921 1004 6 70.1067 40.848 16.2762 0.00882044 -0.00253377 0.00279469
1922 1004 7 69.2659 40.0782 16.0576 0.00451026 0.00265179 0.00111143
1923 1004 6 69.0547 39.5527 15.0439 0.00323779 0.00402832 0.00066298
1924 1005 6 31.8026 34.4319 22.3342 0.00137526 -0.00138514 -0.00403187
1925 1005 7 31.2738 35.32 21.811 0.00403932 0.00314252 0.000960843
1926 1005 6 32.2282 35.5073 21.1777 0.00232792 -0.000243422 -0.00261964
1927 1006 6 28.9188 12.0791 16.63 0.00106151 8.76363e-05 0.00356905
1928 1006 7 28.7519 11.4895 17.6154 -0.00376567 0.00101466 0.0033059
1929 1006 6 28.9924 11.7127 18.7292 -0.00485414 -4.45012e-05 0.00375324
1930 1007 6 49.9657 32.8983 15.0425 0.00223837 -0.0038417 0.000566483
1931 1007 7 49.5224 31.874 14.7276 0.0019302 -0.00477851 0.00404711
1932 1007 6 48.3966 31.7056 14.9577 -0.00235027 0.00303032 -0.0111796
1933 1008 6 73.3 29.7905 17.0681 -0.00234286 -0.00353729 0.000374519
1934 1008 7 73.5095 28.9278 16.3218 -0.00324109 -0.000993502 -0.00281798
1935 1008 6 73.7577 27.8538 15.9559 -0.00237682 0.000545184 -0.00674834
1936 1009 6 18.9216 20.5695 9.20325 0.00164945 -9.04659e-05 0.00106278
1937 1009 7 18.1888 21.0877 8.46821 0.00362639 0.00231021 0.000784013
1938 1009 6 18.5584 20.6209 7.47136 -0.000468432 -0.00233359 0.00144054
1939 1010 6 30.8558 43.9629 1.93109 -0.00224688 0.000346254 -0.000471201
1940 1010 7 30.0213 43.2497 2.30635 -0.00260781 0.000613397 -0.000766056
1941 1010 6 29.2227 43.0245 3.11701 0.00570863 -0.00575167 0.00565871
1942 1011 6 37.5314 41.2031 3.51387 0.000607975 0.00167638 0.000364823
1943 1011 7 38.4305 41.9152 3.68697 0.00100537 0.000761675 0.00206351
1944 1011 6 39.4943 42.3715 3.60402 -0.000728351 0.00409262 -0.00185133
1945 1012 6 38.9411 16.2623 18.6689 -0.00323783 0.00659085 0.000348694
1946 1012 7 39.6851 16.9243 18.0742 -0.00211169 -0.00122357 -0.00694152
1947 1012 6 40.7973 17.0798 17.7832 -0.000169692 0.00113414 0.00174219
1948 1013 6 64.49 26.8144 22.1908 0.000130548 -0.00184135 -0.0013894
1949 1013 7 64.6735 25.9143 22.9005 3.52973e-05 0.000355831 0.00142186
1950 1013 6 64.606 25.7664 24.0501 -0.00652579 0.00213094 0.00126496
1951 1014 6 52.335 34.6521 12.5418 0.00329013 -0.00273759 0.00111909
1952 1014 7 51.7322 35.6425 12.514 0.000950694 -0.00424447 -0.00183852
1953 1014 6 51.3848 36.6612 12.9469 -0.00391657 -0.00522933 -0.0034268
1954 1015 6 73.4777 26.9683 11.9835 0.00334844 -0.000733824 0.00332332
1955 1015 7 73.3197 27.8083 12.7734 0.00445432 6.09976e-05 0.0026993
1956 1015 6 73.4306 28.8343 12.2399 -0.00397407 -0.00045545 -4.64251e-05
1957 1016 6 22.3152 25.0707 18.8813 0.00113394 -0.00219789 0.00691034
1958 1016 7 23.0337 24.9031 17.9849 -0.00160366 -0.00257633 0.00478665
1959 1016 6 24.1238 25.2391 17.7723 -0.00467755 0.00326685 -0.00173783
1960 1017 6 36.8609 10.5169 23.0047 -0.00175375 0.00337711 0.00165731
1961 1017 7 37.7048 10.1316 23.701 0.00721029 0.00629384 -0.00759234
1962 1017 6 38.5434 9.89578 24.4673 0.000606944 0.00162009 -0.00180428
1963 1018 6 50.2387 1.77938 0.540949 -0.00121697 -0.000719356 0.00422056
1964 1018 7 68.0179 12.1702 29.6856 0.00328612 0.00281461 0.000212867
1965 1018 6 67.5795 12.2064 28.6105 0.0045815 0.0105317 -5.5852e-05
ITEM: TIMESTEP
430000
ITEM: NUMBER OF ATOMS
57
ITEM: BOX BOUNDS xy xz yz pp pp pp
0.0000000000000000e+00 1.0131084100000001e+02 2.7630201000000000e+01
0.0000000000000000e+00 5.8491914999999999e+01 1.8420141000000001e+01
0.0000000000000000e+00 3.0080027000000001e+01 1.0634897000000000e+01
ITEM: ATOMS id mol type x y z vx vy vz
1909 1000 6 36.4659 27.2943 25.0323 0.000920853 0.006174 -0.00196852
1910 1000 7 36.8798 26.6704 24.1453 -0.00636302 0.00108004 -0.00178431
1911 1000 6 37.0326 26.9096 23.0198 -0.00376637 -0.0011065 -0.00189659
1912 1001 6 80.3999 52.9779 25.1239 -0.000685438 -0.00721125 0.000596857
1913 1001 7 79.3982 53.1356 25.6898 -0.00442374 0.00233528 -0.00868143
1914 1001 6 78.891 53.7612 26.5247 -0.00237853 -0.00225911 -0.00399625
1915 1002 6 68.2718 23.675 15.5554 0.00453381 0.00239542 0.00361135
1916 1002 7 67.8101 24.0535 16.5499 -0.0029897 0.00181754 0.000338925
1917 1002 6 67.3794 24.6764 17.4285 -0.00248862 0.00187442 0.000544262
1918 1003 6 58.5206 36.9851 17.8482 0.00185694 0.000139552 -0.000942813
1919 1003 7 58.3455 38.1311 17.8846 0.00112988 -2.48571e-05 0.000734945
1920 1003 6 58.7858 38.9689 18.5572 0.00388135 -0.000136606 -0.000927413
1921 1004 6 35.1064 32.4319 3.65016 -1.6033e-06 0.000885653 0.00342672
1922 1004 7 35.7925 31.5021 3.54041 -0.00241057 -0.000869734 0.00323856
1923 1004 6 36.6635 31.1973 4.24522 -0.0035002 -0.00352133 0.00343868
1924 1005 6 29.3853 35.5223 21.515 0.000836563 -0.000967293 0.00244596
1925 1005 7 30.2352 36.2242 21.8717 0.000728639 0.000191764 0.000422272
1926 1005 6 84.7969 37.138 21.7186 0.000728167 -0.000318719 -0.00262218
1927 1006 6 35.0495 16.0564 19.0001 0.00569902 -0.00309687 -0.0059984
1928 1006 7 33.9942 16.1731 18.5317 0.00456684 0.000374363 -0.00258287
1929 1006 6 33.6063 16.209 17.4379 0.000729581 -0.00199193 -0.0012999
1930 1007 6 49.2839 35.1598 10.4476 -0.00135556 -0.00206765 -0.00179827
1931 1007 7 49.9999 36.0716 10.4233 -0.00100815 -0.00224735 0.0016919
1932 1007 6 50.2896 36.5285 11.4509 -0.00841958 -0.000348305 0.00293727
1933 1008 6 18.2324 20.7951 7.72138 -0.000211774 -0.00338781 0.00458071
1934 1008 7 18.2683 19.7567 8.23662 0.00794318 -0.00256292 0.00567489
1935 1008 6 18.1922 18.972 9.08951 0.00257865 -0.00393437 0.00393442
1936 1009 6 20.113 22.957 9.15109 -0.0012603 -0.00219904 -0.00329981
1937 1009 7 20.3398 22.9189 8.01402 0.00344785 -0.000634007 -0.00241322
1938 1009 6 21.4768 23.1528 8.03948 0.00268348 0.00256002 0.00237699
1939 1010 6 46.7638 54.819 30.0354 -0.000803174 -0.000532937 0.00379885
1940 1010 7 45.7434 54.2721 29.96 -0.00109516 0.000538745 -1.97567e-05
1941 1010 6 44.9341 53.8089 29.2701 0.000806007 0.0017535 -0.00306567
1942 1011 6 45.1596 42.2478 2.8935 0.00143414 -0.00066405 0.0034663
1943 1011 7 46.0049 42.1856 2.1018 -0.00190005 0.0016657 -0.000277149
1944 1011 6 46.7055 41.7538 1.28346 -0.00319918 0.00306136 -0.00212567
1945 1012 6 40.334 20.5622 20.6231 0.00054232 0.00302103 -0.00335995
1946 1012 7 39.2315 20.6642 20.2773 0.000526212 0.00171208 -0.00369499
1947 1012 6 38.1771 20.1811 20.3054 0.000528864 0.00181495 -0.00182216
1948 1013 6 64.3438 26.5402 22.9262 0.00421383 -0.00268136 0.000596895
1949 1013 7 64.6783 27.2408 23.7893 -0.00171592 -0.00424769 0.00416646
1950 1013 6 64.3592 28.3014 24.1373 0.00198228 -0.00132658 -0.00134499
1951 1014 6 49.7518 41.6111 18.0447 -0.00153799 0.00507778 0.00176996
1952 1014 7 50.7513 41.0247 18.0004 -0.00340512 0.00207217 -0.000572836
1953 1014 6 51.7854 40.7647 17.5433 -0.00353172 0.00172939 -0.000664289
1954 1015 6 73.1847 23.8873 11.8124 -0.00139145 -0.00375766 -0.00214993
1955 1015 7 73.5884 24.0052 10.7272 0.00128565 0.00114616 -0.000621341
1956 1015 6 72.8717 24.7125 10.1479 -0.00175504 -0.00270191 -0.00155815
1957 1016 6 76.7154 28.279 20.3289 0.000342089 -0.000153454 -0.000892273
1958 1016 7 77.344 27.8153 19.4701 -0.000330907 -0.000476148 -0.00121059
1959 1016 6 77.1686 26.9147 18.7597 -0.000632162 -0.0010866 -0.00036232
1960 1017 6 37.4661 11.4652 24.1682 -0.00123737 0.00460362 0.00118595
1961 1017 7 37.2504 10.3878 23.7966 0.00575697 0.00136126 0.00652579
1962 1017 6 36.9635 9.28636 23.572 -0.00182305 0.00350466 0.00569541
1963 1018 6 56.1679 6.41383 2.04091 0.00117634 -0.00565688 -0.000352947
1964 1018 7 56.9576 6.72304 2.8322 -0.00101573 -0.00136965 0.000159412
1965 1018 6 57.7489 6.66373 3.6805 0.00309194 0.00231343 -0.00341488
ITEM: TIMESTEP
435000
ITEM: NUMBER OF ATOMS
57
ITEM: BOX BOUNDS xy xz yz pp pp pp
0.0000000000000000e+00 1.0131084100000001e+02 2.7630201000000000e+01
0.0000000000000000e+00 5.8491914999999999e+01 1.8420141000000001e+01
0.0000000000000000e+00 3.0080027000000001e+01 1.0634897000000000e+01
ITEM: ATOMS id mol type x y z vx vy vz
1909 1000 6 35.833 26.8434 25.0829 0.0036439 2.81482e-05 0.000383299
1910 1000 7 36.7668 26.3114 24.6443 -0.000381396 -0.00672319 2.5545e-06
1911 1000 6 37.0624 26.0059 23.5642 0.00178727 0.000748939 -0.00151726
1912 1001 6 68.3794 48.2765 2.51975 0.00154738 0.00708112 0.00647886
1913 1001 7 41.1755 1.30154 1.89625 0.00260283 0.000324452 -0.00235875
1914 1001 6 41.887 2.21638 1.94611 0.00624948 -0.00195845 -0.0125117
1915 1002 6 67.1736 22.0372 18.8567 -0.000861009 -0.0016475 -0.00701932
1916 1002 7 67.4848 23.1165 18.5671 -0.00163844 0.000472979 4.89161e-05
1917 1002 6 67.9235 24.0696 18.0728 -0.00358498 0.00415772 0.00542598
1918 1003 6 58.3753 37.9548 16.6959 -0.00326703 0.0013163 0.00119619
1919 1003 7 58.3001 38.451 17.7416 -0.00338344 0.000444992 0.00160128
1920 1003 6 58.7875 39.4036 18.1925 0.000138869 -0.00244481 0.0038992
1921 1004 6 42.8295 27.8742 3.10001 -0.0031205 0.00501303 -0.00181925
1922 1004 7 42.2212 27.756 4.08151 0.00134837 -0.00410111 -0.000147248
1923 1004 6 42.6196 27.3665 5.10027 0.00971217 0.000817548 -0.00153714
1924 1005 6 30.2176 37.6771 19.4911 0.00248674 0.00391028 -0.000506188
1925 1005 7 30.5617 38.3114 20.3974 0.00387638 0.00757969 -0.00360193
1926 1005 6 84.8894 38.9898 20.2689 -0.00163225 0.000948194 0.00137541
1927 1006 6 39.0456 16.6271 14.5034 -0.00184434 0.00363598 0.00174109
1928 1006 7 38.1202 16.6601 15.2028 0.000204002 -0.0024596 0.00473897
1929 1006 6 37.8356 17.314 16.1191 -0.0067619 0.00421334 -0.00218727
1930 1007 6 51.9058 33.7743 12.1651 0.000484823 -0.001451 0.00390157
1931 1007 7 51.2592 33.8425 13.1253 -0.00261374 0.000116063 0.00170396
1932 1007 6 51.66 33.28 14.0589 -0.00335857 0.00535291 0.00517895
1933 1008 6 18.4736 21.8193 8.35734 0.00336585 -0.00294086 0.00275156
1934 1008 7 18.0449 20.7817 8.64811 0.000875521 -0.00114077 0.00550282
1935 1008 6 17.2851 20.0039 9.05643 -0.0061458 0.000568675 -0.00430583
1936 1009 6 74.2706 25.5871 12.1784 -0.000833366 0.00280914 -0.000320007
1937 1009 7 74.134 26.5512 12.8092 0.000562028 0.00205723 0.00113142
1938 1009 6 73.4497 27.1531 12.0898 0.00287048 0.00484052 0.00126419
1939 1010 6 50.2039 54.2647 26.9674 0.00105603 -0.00115228 0.00573065
1940 1010 7 49.1303 54.2351 27.4061 -0.000939741 -0.00195281 0.000791537
1941 1010 6 48.4657 54.1384 28.3519 -0.00533122 -0.00807889 -0.00292076
1942 1011 6 12.2995 3.50934 1.77701 -0.0020146 -0.00427299 0.00728757
1943 1011 7 13.3576 3.06266 1.93939 -0.000289508 -0.00296138 -0.000344963
1944 1011 6 14.2254 2.45314 2.41079 0.00515013 0.00222925 -0.00364793
1945 1012 6 42.752 21.8106 18.1667 0.00277533 0.00209998 -0.00411711
1946 1012 7 43.5683 21.124 18.6224 -0.00100859 -0.000687144 -0.00153858
1947 1012 6 43.7666 20.1904 19.282 -0.00635346 -0.00257464 -0.00260326
1948 1013 6 60.8352 28.4345 22.5068 -0.00107378 -0.000231221 0.00122268
1949 1013 7 61.8483 27.8682 22.5274 0.00270333 0.00653256 0.00138816
1950 1013 6 62.5527 27.5053 23.3761 -0.000200708 0.00196496 0.0018452
1951 1014 6 49.9249 41.0335 17.5776 0.00214803 0.00534219 0.00205831
1952 1014 7 51.0558 40.78 17.5349 0.00192449 0.00549448 -0.0047661
1953 1014 6 52.1755 40.9781 17.7648 0.00171224 -0.00407265 0.00451002
1954 1015 6 70.5986 25.4842 11.9993 -0.00394745 0.000687438 6.1864e-06
1955 1015 7 71.0037 26.0314 11.0554 -0.00110499 -0.000482064 0.000548036
1956 1015 6 70.2777 26.9018 10.8005 0.00741038 0.00815994 0.00580168
1957 1016 6 76.6768 27.1989 18.8413 0.00255718 -0.000709406 -0.000471423
1958 1016 7 77.6085 26.545 19.0694 0.00181752 -0.00249612 -0.00257309
1959 1016 6 22.6661 25.4794 18.7378 6.10167e-05 -0.00224749 -0.00505685
1960 1017 6 33.0248 13.1843 28.7403 -0.000473899 -0.00468619 0.000134081
1961 1017 7 33.4235 14.0838 29.3547 0.00209146 -0.00693368 0.00175991
1962 1017 6 33.8745 15.0439 29.8246 -0.00505535 -0.00376018 0.00213638
1963 1018 6 56.6696 5.54349 4.79827 0.00332324 0.00255163 0.00170626
1964 1018 7 56.6042 5.58737 5.9555 -0.00426408 0.00399203 0.00122308
1965 1018 6 56.4683 5.98946 7.03678 -0.00501232 0.00665235 0.000139753
ITEM: TIMESTEP
440000
ITEM: NUMBER OF ATOMS
57
ITEM: BOX BOUNDS xy xz yz pp pp pp
0.0000000000000000e+00 1.0131084100000001e+02 2.7630201000000000e+01
0.0000000000000000e+00 5.8491914999999999e+01 1.8420141000000001e+01
0.0000000000000000e+00 3.0080027000000001e+01 1.0634897000000000e+01
ITEM: ATOMS id mol type x y z vx vy vz
1909 1000 6 37.2709 20.1517 20.8023 0.000173722 -0.0090757 0.00328787
1910 1000 7 37.0877 21.0944 21.4544 0.00154463 -0.00442628 -0.00304722
1911 1000 6 37.0477 21.2601 22.6026 0.000667708 0.00313693 -0.00416935
1912 1001 6 55.0811 42.3994 12.7442 0.00698889 0.00262854 -0.00535231
1913 1001 7 55.7525 42.2231 11.8132 0.00510868 -0.00100145 -0.00602103
1914 1001 6 55.8326 41.619 10.8262 0.0031496 -0.00490242 -0.00379245
1915 1002 6 67.6242 19.1457 11.8747 -8.71939e-05 -0.000651569 -0.000774786
1916 1002 7 68.0632 18.1798 12.3435 0.00365535 0.000464105 -0.00198114
1917 1002 6 68.3877 17.3106 13.0396 0.00217434 -0.00195851 -0.00431611
1918 1003 6 58.5734 37.4565 18.1969 0.002433 -0.000544206 0.000447726
1919 1003 7 57.9648 38.4439 18.1915 0.00029693 -0.00184465 0.00341934
1920 1003 6 58.2333 39.5267 17.8695 -0.00377312 -0.00138744 0.00156358
1921 1004 6 48.0863 31.6916 15.358 0.00170964 0.00657678 0.00164805
1922 1004 7 47.6316 31.7584 16.424 0.00249936 0.00669797 0.00197733
1923 1004 6 48.2173 31.8611 17.4213 0.00357068 -0.00152407 0.0021952
1924 1005 6 83.4317 43.1471 16.7028 -0.00411521 -0.000641339 -0.00183962
1925 1005 7 83.9072 42.0931 16.7744 -0.00539871 -0.00145443 -0.00528691
1926 1005 6 83.1155 41.7966 17.5695 -0.00354732 -0.00191339 -0.0036146
1927 1006 6 37.5053 17.8283 18.9197 0.00158124 -0.0051623 0.00430163
1928 1006 7 36.4438 17.9824 19.3624 -0.000458508 -0.00469183 -0.000752707
1929 1006 6 35.5084 18.5708 19.006 0.00217588 -0.00257782 -0.00417632
1930 1007 6 49.1512 32.8109 12.2378 0.000774092 -0.000958241 0.00333662
1931 1007 7 48.5603 31.8433 12.4816 -0.0062154 0.00220684 -0.00103969
1932 1007 6 48.4978 31.0494 11.6364 -0.00361825 0.00224181 -0.0012646
1933 1008 6 18.4056 22.3089 8.5294 -1.87865e-05 -0.00456869 0.000375464
1934 1008 7 19.5629 22.2352 8.51429 0.000178026 -0.00075992 -0.00312331
1935 1008 6 20.6667 22.5509 8.69009 -0.000386128 0.00134715 -0.00336448
1936 1009 6 73.9519 28.9603 16.4963 -0.00453629 0.00143704 0.00150021
1937 1009 7 73.323 28.9229 15.5222 -0.000603396 0.00751718 -0.00127203
1938 1009 6 73.785 27.9758 15.0345 -0.00540656 0.00489509 -0.000729303
1939 1010 6 29.9466 42.1818 1.77298 0.00156836 -0.000798382 0.000804127
1940 1010 7 29.4001 42.6221 2.69681 -0.00388445 -0.0108342 0.00236155
1941 1010 6 28.3899 42.9274 3.17824 -0.00506112 -0.000139876 -0.00688913
1942 1011 6 40.4396 48.5768 4.35173 0.00264443 0.00519946 0.000134437
1943 1011 7 12.2971 1.40958 3.57262 0.00543283 -0.00153793 -0.00766407
1944 1011 6 12.1523 2.2512 2.78674 0.00284631 0.00543803 0.000283125
1945 1012 6 41.4434 19.7807 19.3822 0.00158672 0.00709989 -7.97868e-05
1946 1012 7 42.1818 20.2497 18.6205 0.00579573 0.00217201 0.000966313
1947 1012 6 43.2991 20.4365 18.3699 0.00748901 -0.00775488 0.00111688
1948 1013 6 64.4732 21.5418 22.6687 0.00482602 -1.76163e-05 0.000975242
1949 1013 7 64.502 22.6999 22.7442 0.00461223 6.40337e-05 -0.000196032
1950 1013 6 64.5459 23.4499 23.6293 0.00295613 0.00100215 -0.000908913
1951 1014 6 45.577 37.6117 22.2954 -0.00349996 0.000966274 -0.00156737
1952 1014 7 45.5585 38.699 21.8925 -0.00503584 -4.71688e-05 -0.00423157
1953 1014 6 45.2908 39.5147 21.1122 -0.00829762 -0.00195818 -0.00511034
1954 1015 6 20.602 24.7691 14.3828 0.000722031 0.00646707 0.00336813
1955 1015 7 20.1992 25.4412 13.5223 -0.00171998 0.00260732 0.0014967
1956 1015 6 20.2584 24.8373 12.5316 0.00282676 0.000957285 0.00277442
1957 1016 6 25.9896 21.3276 19.2813 0.00010868 0.00128356 0.00182624
1958 1016 7 25.3317 22.2562 19.0518 0.00315426 0.00272102 -0.00108942
1959 1016 6 24.7485 22.5981 18.1086 0.00314308 0.000980776 -0.00171335
1960 1017 6 64.5112 56.1167 27.8767 -0.00561062 -0.00271502 -0.00294162
1961 1017 7 64.9287 56.4892 26.8606 -0.00262186 0.000731828 -0.000449757
1962 1017 6 65.4108 56.7106 25.8289 0.00882945 0.00734855 0.00632023
1963 1018 6 49.25 6.3971 12.97 0.00228841 -0.00603625 0.00804753
1964 1018 7 48.8048 7.14122 13.7404 -0.00198401 -0.00194634 0.00162803
1965 1018 6 48.0611 7.66747 14.461 -0.00488984 -0.000222466 -0.00262977
ITEM: TIMESTEP
445000
ITEM: NUMBER OF ATOMS
57
ITEM: BOX BOUNDS xy xz yz pp pp pp
0.0000000000000000e+00 1.0131084100000001e+02 2.7630201000000000e+01
0.0000000000000000e+00 5.8491914999999999e+01 1.8420141000000001e+01
0.0000000000000000e+00 3.0080027000000001e+01 1.0634897000000000e+01
ITEM: ATOMS id mol type x y z vx vy vz
1909 1000 6 35.3963 19.6576 20.8456 -0.0029282 -0.000302561 0.000423526
1910 1000 7 36.3759 20.2651 20.7095 -0.0031567 0.000169216 0.000884773
1911 1000 6 36.9035 21.0632 21.3668 -0.00121436 -0.00329102 0.00352719
1912 1001 6 62.9898 27.8483 8.25439 -0.00305111 -0.00539922 -0.00169301
1913 1001 7 62.0851 28.4396 8.67908 -0.00158768 -0.00100418 -0.00469504
1914 1001 6 61.7018 29.5088 8.91506 0.00244442 0.000918734 -0.00685885
1915 1002 6 68.0074 20.5279 17.5677 -0.00703314 -0.000382469 -0.000913345
1916 1002 7 68.4433 20.5574 16.4932 -0.00155158 0.00172475 0.00136807
1917 1002 6 68.6307 20.4994 15.35 0.00397314 0.00491711 0.00211173
1918 1003 6 58.0764 37.6623 19.1331 0.00497511 0.000430225 -6.83624e-05
1919 1003 7 57.6863 38.6737 18.7203 0.00129018 2.79104e-05 0.00242741
1920 1003 6 58.1924 39.5108 18.0947 -0.00291447 0.00159414 0.00112168
1921 1004 6 47.7052 35.6951 20.6386 0.00356899 0.00194059 -0.000906911
1922 1004 7 47.9708 35.215 21.6615 -0.00263484 0.0055909 0.00241758
1923 1004 6 48.9373 35.3934 22.2799 -0.00231769 0.000802437 0.00330323
1924 1005 6 78.469 45.6478 7.09147 1.09411e-05 0.00338193 0.00198473
1925 1005 7 79.0861 45.8229 8.05617 0.0045984 -8.84558e-05 -0.000319868
1926 1005 6 78.6199 44.8668 8.52045 0.00279466 0.00118388 0.000489318
1927 1006 6 34.7123 17.1288 18.0381 0.00130067 -0.00294654 -0.00313997
1928 1006 7 33.6119 17.388 18.2999 0.00404976 -0.000412797 0.00590753
1929 1006 6 32.6551 16.7474 18.4491 6.87767e-05 0.0033492 -0.00346387
1930 1007 6 48.2051 32.4592 19.1159 0.00115861 0.00390079 -0.00413092
1931 1007 7 47.7744 31.476 18.677 -5.68365e-05 0.00437756 -0.0040061
1932 1007 6 46.7516 31.5576 18.1329 0.000813068 0.00586183 -0.00541861
1933 1008 6 71.4401 26.6205 11.3581 0.000470216 -0.00206489 0.00279994
1934 1008 7 72.11 27.3196 11.9964 -0.00302046 0.00315006 0.000751058
1935 1008 6 73.0531 27.9217 12.3079 -0.0035822 0.00299811 0.00274536
1936 1009 6 73.8658 28.7889 17.0362 0.00485596 0.00128348 -0.0030807
1937 1009 7 73.9317 29.1267 15.9283 0.009911 0.00103423 -0.00285591
1938 1009 6 73.7463 28.1057 15.4074 -0.00584545 0.00424249 -0.00353716
1939 1010 6 79.4916 42.9988 1.46229 0.00388726 -0.00209924 -0.00497589
1940 1010 7 80.6374 42.9814 1.28149 0.00484225 -0.00112401 0.00098295
1941 1010 6 26.3213 42.3415 1.07126 0.00488164 0.000680291 -0.00433257
1942 1011 6 8.67956 9.04804 0.886431 -0.00514501 0.00160938 0.00191777
1943 1011 7 27.7301 19.7184 29.9935 -0.00258023 0.00283969 0.00362436
1944 1011 6 28.1229 19.4464 28.9359 0.00235529 0.00215534 0.00563349
1945 1012 6 40.3164 17.7284 11.7343 -0.000429048 -0.00375638 -0.00310194
1946 1012 7 41.4735 17.773 11.8019 -0.000169569 -0.00655263 -0.00569675
1947 1012 6 42.3971 17.5453 12.466 8.58287e-05 0.0019326 -0.00314262
1948 1013 6 59.5184 29.2503 20.4921 -0.0050091 -0.00160914 0.000394035
1949 1013 7 60.2957 28.8986 21.2794 7.3391e-05 0.00161758 -0.00318171
1950 1013 6 60.3941 29.0266 22.4291 0.00278346 -0.00128275 -0.0030908
1951 1014 6 43.3584 42.6823 15.1774 -0.00126389 0.00300879 0.00159895
1952 1014 7 44.1544 43.0416 15.9405 0.00334166 -0.00557554 0.000836042
1953 1014 6 44.5404 43.2728 17.0097 0.00204362 0.00317392 -0.000587911
1954 1015 6 26.0614 32.3413 16.1779 0.000444957 -0.000564097 0.000955267
1955 1015 7 25.8771 31.2983 16.6601 0.00309281 0.00070474 0.00471239
1956 1015 6 26.909 30.8202 16.8972 0.00448267 -0.00150768 -0.00579852
1957 1016 6 24.6462 22.3518 18.1295 0.00052138 -0.00138366 -0.00163823
1958 1016 7 24.1098 23.3738 18.0049 0.00411012 0.00111754 0.00342908
1959 1016 6 24.2291 24.2414 17.2436 -0.00260275 -0.00169065 -0.000821938
1960 1017 6 37.0822 10.4997 24.1667 0.0054268 0.0021487 -0.00191948
1961 1017 7 36.5392 11.5232 24.2219 -0.00404734 -0.00268653 -0.00545947
1962 1017 6 36.0033 12.5464 24.1122 -0.000314123 -0.00105109 -0.00844155
1963 1018 6 44.7113 7.86733 11.5538 -0.0102033 0.000322395 0.00340109
1964 1018 7 44.5616 7.71174 12.6934 -0.00195491 -0.000790019 0.00433232
1965 1018 6 44.7847 7.55551 13.8226 0.00624459 0.00289398 0.00322197
ITEM: TIMESTEP
450000
ITEM: NUMBER OF ATOMS
57
ITEM: BOX BOUNDS xy xz yz pp pp pp
0.0000000000000000e+00 1.0131084100000001e+02 2.7630201000000000e+01
0.0000000000000000e+00 5.8491914999999999e+01 1.8420141000000001e+01
0.0000000000000000e+00 3.0080027000000001e+01 1.0634897000000000e+01
ITEM: ATOMS id mol type x y z vx vy vz
1909 1000 6 39.046 14.0521 10.5899 0.00415887 -0.000948381 0.000977463
1910 1000 7 39.1066 13.0221 10.0581 0.00332571 0.00125838 -0.00339143
1911 1000 6 39.9934 12.3134 9.81627 0.00234388 0.00010612 -0.00361524
1912 1001 6 52.8683 43.5912 6.6167 -0.00224657 0.0124845 0.00378439
1913 1001 7 51.7825 43.2722 6.87691 -0.000562042 0.00761777 0.00484604
1914 1001 6 50.6693 43.4616 6.6113 -0.00150485 -8.06895e-05 0.00330577
1915 1002 6 69.9591 21.8274 9.84322 0.000286495 -0.000547159 -0.00452115
1916 1002 7 70.0601 21.0214 10.6712 0.000159349 0.00137791 -0.00263169
1917 1002 6 70.3782 20.1391 11.3537 -0.000701643 0.00215007 -0.00123213
1918 1003 6 61.8339 43.3211 20.3403 0.00187423 -0.00122963 -0.00119232
1919 1003 7 62.1936 42.4506 19.6634 0.00190487 -0.00294792 0.0010341
1920 1003 6 63.2033 42.24 19.1301 0.00173717 -0.00400899 0.00113547
1921 1004 6 49.3963 35.1265 20.8601 0.00150847 0.00466347 -0.00129074
1922 1004 7 48.8399 34.5339 20.0315 0.00330268 -0.000785524 0.00140165
1923 1004 6 47.7086 34.2737 20.0074 0.00353949 -0.0017916 0.00114486
1924 1005 6 80.289 47.3486 4.79798 -0.000847266 -0.00293966 -0.00320133
1925 1005 7 80.427 47.0477 5.90813 -0.000509141 5.31605e-05 -0.00243205
1926 1005 6 79.3608 46.5892 5.91 0.000707163 -0.00277262 -0.00178981
1927 1006 6 36.3113 20.5878 8.57403 0.00217268 0.00887611 0.00239376
1928 1006 7 35.9736 21.0663 9.57591 -0.00318892 0.0024506 0.00365527
1929 1006 6 36.1025 20.7617 10.6889 -0.00246065 -0.00065804 0.00272014
1930 1007 6 46.4214 31.4956 18.4846 -0.0034768 0.000509746 0.000741186
1931 1007 7 45.6985 30.6457 18.1687 -0.00111523 0.000846622 -0.00556842
1932 1007 6 46.1781 29.6068 17.9698 -0.000225982 -4.8362e-05 0.00125234
1933 1008 6 23.6289 23.3685 11.3472 0.00314265 -0.00160233 -0.000711694
1934 1008 7 23.993 22.2676 11.3267 0.000833249 -0.00220489 -0.0093596
1935 1008 6 24.7394 21.3779 11.3172 -0.00124543 -0.00401808 -0.00284668
1936 1009 6 71.1053 25.4768 11.7723 0.000602564 -0.00129553 -0.00150368
1937 1009 7 71.104 25.0504 10.6934 -0.00889043 -0.00578029 0.000280098
1938 1009 6 70.4233 25.838 10.1791 -0.00284576 -0.000663285 0.000115871
1939 1010 6 76.605 46.7626 3.3776 0.0078748 0.000293354 -0.00640223
1940 1010 7 76.7277 47.7206 4.02028 0.00241213 -0.000153604 -0.00469325
1941 1010 6 76.8586 48.8731 4.03749 0.000107538 7.89033e-05 -0.00273139
1942 1011 6 8.07261 11.3543 3.92866 -0.00252927 0.00687534 -0.000291407
1943 1011 7 8.76454 10.8072 3.17546 -0.00230384 0.00014572 0.00480301
1944 1011 6 9.69524 10.5604 2.52758 -0.00424148 -0.00244463 0.00300665
1945 1012 6 41.2575 17.4543 12.49 -0.00240271 0.000955603 0.00085383
1946 1012 7 40.552 16.7385 13.069 0.00194062 -0.00355861 0.000565316
1947 1012 6 40.2755 16.3136 14.1125 0.00374748 -0.00476989 0.00055086
1948 1013 6 61.631 25.0087 17.2977 0.00202686 0.00177028 -0.000984122
1949 1013 7 61.3525 24.4308 16.3302 0.00277154 0.000790623 -0.000613227
1950 1013 6 60.4356 24.444 15.6182 0.00379989 0.000849133 -0.00193634
1951 1014 6 42.9655 42.4722 15.364 -0.000968048 -0.00106753 -0.000612135
1952 1014 7 43.1872 42.2891 16.4875 0.00229924 0.00371503 -0.000477259
1953 1014 6 42.9927 42.4297 17.6225 -0.00100342 5.96467e-05 -0.000590462
1954 1015 6 27.8103 30.4298 17.1456 -0.00165864 0.00434672 -0.000946724
1955 1015 7 27.0824 31.0836 16.5155 -0.000933886 0.00208566 -0.00412974
1956 1015 6 26.6223 30.416 15.6834 0.00179877 -0.00031848 -0.00371176
1957 1016 6 25.0823 24.4511 14.061 0.00572516 0.001267 -0.000676369
1958 1016 7 24.9441 24.8782 15.1316 0.00452063 -0.000521675 -0.000118408
1959 1016 6 24.287 24.5562 16.0322 -0.00200144 0.00234754 -0.00385122
1960 1017 6 60.9426 55.151 25.8916 -0.00235713 -0.00295999 -0.00297875
1961 1017 7 60.4608 56.1875 26.0885 -0.00509263 -0.00416557 -0.00332601
1962 1017 6 32.4106 9.41085 26.1386 0.00278344 -0.00135007 0.00199474
1963 1018 6 61.3926 48.6492 25.9127 0.00170249 -0.00535078 0.00676364
1964 1018 7 61.9166 49.0941 24.9785 -0.00452522 -0.00594403 0.00298844
1965 1018 6 62.7347 49.3736 24.2027 -0.00783239 0.00150561 0.00218464
ITEM: TIMESTEP
455000
ITEM: NUMBER OF ATOMS
57
ITEM: BOX BOUNDS xy xz yz pp pp pp
0.0000000000000000e+00 1.0131084100000001e+02 2.7630201000000000e+01
0.0000000000000000e+00 5.8491914999999999e+01 1.8420141000000001e+01
0.0000000000000000e+00 3.0080027000000001e+01 1.0634897000000000e+01
ITEM: ATOMS id mol type x y z vx vy vz
1909 1000 6 46.1696 9.26256 2.37003 0.0101403 -0.0101049 0.0031857
1910 1000 7 46.3152 9.1725 1.22196 0.00341081 -0.00501765 0.00193296
1911 1000 6 46.8298 9.85756 0.438855 0.000653762 -0.00256727 0.00226498
1912 1001 6 55.1055 10.3231 25.5344 0.00268023 0.00223574 0.00125579
1913 1001 7 54.1698 10.1959 24.8585 0.00361897 -0.00475044 0.001271
1914 1001 6 53.0177 10.3285 24.8319 0.0053006 0.0083083 -0.00648561
1915 1002 6 69.8834 23.5836 7.45697 0.00691195 0.00531792 -0.00330585
1916 1002 7 70.6567 22.7443 7.6645 0.00380841 0.00311003 -0.000670916
1917 1002 6 16.0956 21.9452 8.13097 -0.00308907 -0.00177786 0.00129617
1918 1003 6 60.4555 35.9443 20.2246 0.00102842 0.00628076 0.00588397
1919 1003 7 60.8456 35.3831 21.1617 0.00114559 -0.00280298 0.000395754
1920 1003 6 61.8435 35.4454 21.752 -0.00230305 -0.00215148 0.00615747
1921 1004 6 44.022 32.7701 19.4183 0.000228639 -0.00195355 -0.00274248
1922 1004 7 44.6616 33.7282 19.2765 0.00125191 -0.00231221 -0.000551184
1923 1004 6 45.0339 34.1692 18.2689 -0.00381104 0.00322128 2.22318e-07
1924 1005 6 51.1598 2.85999 2.61949 0.00306345 0.00311514 0.00235679
1925 1005 7 50.1081 2.41505 2.81431 0.0020982 0.00326105 -0.00252096
1926 1005 6 49.6361 3.4538 2.60202 0.00377989 0.00494205 0.00196487
1927 1006 6 44.1619 22.4407 9.01875 0.00207608 -0.00256464 -0.00165821
1928 1006 7 44.006 23.094 8.07243 -0.000563707 -0.00420712 -0.00235722
1929 1006 6 44.0541 22.873 6.93356 0.00476069 -0.00419372 -0.00213467
1930 1007 6 46.4523 30.8737 15.8324 0.00237366 0.00193201 -0.000698538
1931 1007 7 45.8358 31.4617 16.6192 -0.000808414 -0.000314936 -0.00151266
1932 1007 6 45.6257 30.9168 17.623 -0.00347864 -0.00256325 -0.00329214
1933 1008 6 23.3658 19.8154 13.4488 -0.00451703 -0.00227787 -0.00380518
1934 1008 7 23.7672 18.7457 13.6475 0.00148038 0.00171454 0.00557393
1935 1008 6 24.3567 17.7624 13.4614 -6.72218e-06 -1.66165e-05 0.0100097
1936 1009 6 19.4312 23.4877 10.8741 -0.00372808 -0.0144318 0.00197082
1937 1009 7 18.3067 23.5477 11.1528 -0.00248577 4.82002e-05 0.00386612
1938 1009 6 73.6495 23.414 12.3033 -0.00229352 -0.00132305 0.00369299
1939 1010 6 52.5983 5.13796 1.72467 0.005534 -0.000537004 0.000113225
1940 1010 7 52.027 5.56651 2.63888 0.000172838 0.00270757 -0.00475829
1941 1010 6 52.0764 5.91217 3.74508 -0.0084678 -0.00259376 -0.00271576
1942 1011 6 51.9492 18.8346 -0.345647 -0.00172297 0.00170949 -0.00634471
1943 1011 7 51.4064 17.9148 0.106874 -0.00209951 0.00226175 -0.00567392
1944 1011 6 50.5527 17.2372 0.505497 -0.00121239 0.00620179 0.00292386
1945 1012 6 42.822 18.8706 14.9415 -0.00389644 0.00330476 0.000740378
1946 1012 7 42.1866 18.3446 14.126 -0.00150271 0.000924182 0.000410783
1947 1012 6 42.0743 17.3903 13.4759 0.000802654 -0.000680885 0.00236882
1948 1013 6 61.5782 24.6166 17.899 -0.0012656 -0.00390713 6.24302e-05
1949 1013 7 60.4687 24.3727 17.6602 -0.00133513 -0.00232189 -0.00123395
1950 1013 6 59.4529 24.7219 18.1008 -0.00135672 -0.000693405 -0.00257471
1951 1014 6 41.9223 41.0976 16.3623 0.000521782 -0.00240379 0.00426946
1952 1014 7 42.4216 42.0234 16.8508 -0.000382671 0.000190434 0.00027718
1953 1014 6 43.3279 42.696 17.1191 -0.000450308 -3.86314e-05 0.00107975
1954 1015 6 29.7892 33.0326 19.4672 -0.000343246 0.00241364 0.00118258
1955 1015 7 29.5427 32.2774 18.6168 -0.00147506 0.00241136 0.00151274
1956 1015 6 30.4914 31.6393 18.4112 -0.00337619 -0.00119229 0.00392341
1957 1016 6 24.8269 24.4901 14.5317 -0.00400537 -0.00248697 -0.00206701
1958 1016 7 24.0962 25.0141 15.266 -0.00216448 0.00178341 -0.00328214
1959 1016 6 24.0653 25.1008 16.4228 -0.00276474 0.00320269 -0.00340461
1960 1017 6 60.6575 53.5421 27.2139 0.00425424 0.000356446 -0.00406532
1961 1017 7 60.38 54.6025 26.8344 -0.00232804 -0.000249932 -0.000946017
1962 1017 6 60.1743 55.6183 26.3131 -0.000341594 0.00330795 0.00520283
1963 1018 6 21.7431 25.4362 9.88289 0.000222679 0.00201561 -0.00392094
1964 1018 7 21.8208 24.3331 9.53315 -0.00249217 0.00121116 -0.00198634
1965 1018 6 21.7456 23.3775 8.87696 0.00156316 0.00151547 -0.00289401
ITEM: TIMESTEP
460000
ITEM: NUMBER OF ATOMS
57
ITEM: BOX BOUNDS xy xz yz pp pp pp
0.0000000000000000e+00 1.0131084100000001e+02 2.7630201000000000e+01
0.0000000000000000e+00 5.8491914999999999e+01 1.8420141000000001e+01
0.0000000000000000e+00 3.0080027000000001e+01 1.0634897000000000e+01
ITEM: ATOMS id mol type x y z vx vy vz
1909 1000 6 49.6221 21.9544 28.4053 0.00496006 -0.0029417 -0.00419583
1910 1000 7 49.8187 23.0741 28.6399 -0.00288707 -0.000846339 -0.00762088
1911 1000 6 50.6507 23.8123 28.3081 -0.00232857 0.00122921 -0.00160197
1912 1001 6 52.4767 9.72859 26.6088 -0.000917124 0.00352722 0.00373623
1913 1001 7 51.3796 9.66547 26.2333 0.00115362 -0.00644215 -0.00063897
1914 1001 6 50.3386 9.21525 26.4767 0.00186861 -0.00731937 0.000796845
1915 1002 6 22.3999 25.9246 10.8446 0.00316115 -0.000606837 0.00450614
1916 1002 7 21.5981 26.5735 11.3751 -0.000439913 -0.00142586 6.51753e-05
1917 1002 6 20.8064 27.3665 11.6748 0.00168076 0.00141159 -0.00184061
1918 1003 6 63.6713 37.9425 20.726 -0.00119277 6.57027e-05 -0.00556288
1919 1003 7 63.3059 36.9461 20.258 -0.00578463 0.00163958 -0.00532934
1920 1003 6 62.6571 36.0777 20.6743 -0.00168348 0.000230424 -0.00187688
1921 1004 6 42.1993 31.4385 18.8551 -0.00357512 -0.000722091 0.00120912
1922 1004 7 42.7774 32.2827 19.4033 -0.00158434 -0.00224075 0.00144825
1923 1004 6 42.3229 33.0956 20.0967 0.000745443 -0.00328446 0.0041986
1924 1005 6 70.5145 46.7073 3.15068 0.000716065 0.00145791 -0.0050063
1925 1005 7 70.2899 46.8563 2.024 -0.0019828 0.000543761 -0.00458915
1926 1005 6 69.2264 46.4203 2.18464 -0.00171054 0.000971379 -0.00162613
1927 1006 6 43.4854 15.2898 3.01507 0.00487134 -0.00165369 0.004231
1928 1006 7 42.7858 14.4539 3.41317 -0.00474066 0.00477475 0.000839438
1929 1006 6 42.3518 14.209 4.46189 -0.00305771 0.00227298 0.00095186
1930 1007 6 46.5281 31.7842 17.8445 0.00113198 0.000550001 0.00018933
1931 1007 7 47.52 31.6272 18.4244 0.00161484 -0.00101052 -0.00105902
1932 1007 6 47.7089 32.3346 19.3259 0.00533105 0.000781738 -0.00324374
1933 1008 6 67.1172 26.8417 8.6001 -0.00779236 0.00451952 0.000114134
1934 1008 7 68.0142 27.2311 9.22353 -0.000444233 0.00507951 -0.0108079
1935 1008 6 68.9902 27.191 9.8518 -0.00395882 0.00382451 -0.00542822
1936 1009 6 68.9879 20.0373 16.1511 0.000368953 0.00189265 0.000623236
1937 1009 7 68.9621 19.2068 16.9606 0.00474331 0.00144589 0.000304452
1938 1009 6 68.1529 19.6526 17.664 0.0020831 -0.00329592 0.000249953
1939 1010 6 29.9826 46.0005 6.05124 -0.00215561 -0.0034532 -0.00411347
1940 1010 7 31.0339 45.7197 6.45347 -0.00414379 -0.000857233 0.00289517
1941 1010 6 32.0806 46.0905 6.78892 -0.00381926 0.000750872 0.000104812
1942 1011 6 70.5922 26.8406 28.6737 -0.000662927 0.00623229 -0.00223344
1943 1011 7 70.0577 27.349 29.5687 0.00104402 0.00998975 -0.0033482
1944 1011 6 51.4756 17.2154 0.522828 0.00113304 0.00436128 -0.000605931
1945 1012 6 42.3117 20.2345 11.2085 0.00580253 -5.47493e-05 -0.000396452
1946 1012 7 42.303 19.1631 11.6529 0.00789226 -0.0017658 -0.00448113
1947 1012 6 42.6872 18.4872 12.5139 -0.00171941 -0.00116702 0.00027825
1948 1013 6 61.515 22.9711 18.1239 -0.00214406 -0.0033271 -0.00212673
1949 1013 7 62.1324 22.4127 18.933 -0.00529789 -0.00266479 0.000736968
1950 1013 6 62.2942 21.2932 19.1945 0.00409537 -0.00286866 -0.00594978
1951 1014 6 44.0572 42.999 13.5722 0.000459057 0.00115598 0.0037175
1952 1014 7 43.0323 42.4659 13.4705 0.000594712 0.00118964 0.00217478
1953 1014 6 42.0102 42.2656 12.9596 0.00117218 0.00153135 0.00088569
1954 1015 6 83.6536 34.67 19.7195 0.0038256 -0.00227711 0.00108443
1955 1015 7 28.8155 34.4304 20.7772 0.00259562 -0.00343938 0.00131231
1956 1015 6 29.4785 35.3227 21.1143 -0.00272327 -0.00112273 0.00564035
1957 1016 6 24.3143 24.6016 17.0644 0.000808038 -0.00129177 -0.000346078
1958 1016 7 24.08 23.5144 17.3974 0.00313669 -0.000460528 0.0040063
1959 1016 6 24.5446 22.4867 17.1245 -0.00351635 -0.00181588 -0.00221698
1960 1017 6 45.9815 43.6832 2.08166 0.00486887 0.000755663 -0.00051416
1961 1017 7 45.4107 43.3705 3.04176 0.00265293 -0.00103868 -0.00241606
1962 1017 6 44.9604 42.947 4.02356 0.00113395 -0.00191212 -0.00348944
1963 1018 6 20.4561 13.3052 6.05881 0.00392155 -0.00406158 -0.00149469
1964 1018 7 21.5903 13.4414 6.25994 0.00339557 -0.00157953 -0.000208371
1965 1018 6 22.7173 13.2074 6.41583 0.00482719 0.00168772 -0.00565498
ITEM: TIMESTEP
465000
ITEM: NUMBER OF ATOMS
57
ITEM: BOX BOUNDS xy xz yz pp pp pp
0.0000000000000000e+00 1.0131084100000001e+02 2.7630201000000000e+01
0.0000000000000000e+00 5.8491914999999999e+01 1.8420141000000001e+01
0.0000000000000000e+00 3.0080027000000001e+01 1.0634897000000000e+01
ITEM: ATOMS id mol type x y z vx vy vz
1909 1000 6 48.1809 24.6627 27.4802 0.00472562 -0.000160795 0.00117402
1910 1000 7 48.3648 23.5675 27.8179 0.00134328 -0.000905301 0.000601357
1911 1000 6 47.6973 22.618 27.8035 -0.00287204 0.00201315 0.00355872
1912 1001 6 81.298 53.3394 26.9821 0.00955926 0.000849132 -0.000438297
1913 1001 7 81.5693 53.2542 25.8562 -0.00175334 0.00443883 -0.00343563
1914 1001 6 81.1114 53.1765 24.7932 -0.0124717 -0.00264115 0.00170029
1915 1002 6 73.2282 27.2388 15.8929 0.00142374 0.00177776 -0.000183516
1916 1002 7 73.5919 27.4184 14.8062 0.00195453 -0.000600985 -0.000398947
1917 1002 6 74.1104 27.7887 13.837 0.00328672 -0.00351579 -0.000799915
1918 1003 6 55.5295 42.1813 12.0433 -0.00337349 -0.00488168 0.00300487
1919 1003 7 54.403 42.0271 11.8138 -0.00203588 -0.00333889 -0.00459637
1920 1003 6 53.6159 42.6908 11.2768 0.000339523 0.00162937 -0.00193735
1921 1004 6 50.3407 32.0556 20.0736 -0.00102387 -0.00274229 0.00303071
1922 1004 7 49.8327 31.2321 19.4323 0.000515592 -0.00203298 0.000900578
1923 1004 6 48.7917 31.2958 18.9219 4.55162e-05 -0.00296956 0.00174243
1924 1005 6 69.2656 45.9318 0.088339 -0.00457773 0.0025439 0.000302624
1925 1005 7 70.1702 46.2265 0.749312 -0.00330375 0.000230393 -0.000409686
1926 1005 6 70.6866 45.2228 0.479348 -0.00528317 -0.000287866 -0.00226888
1927 1006 6 48.6859 25.3715 5.81826 -0.000881123 -0.000428446 0.00642042
1928 1006 7 49.3621 24.8125 6.5778 0.00335826 0.00449459 0.00626967
1929 1006 6 50.5026 24.5995 6.62469 0.00341228 0.00351974 0.000528253
1930 1007 6 46.2123 31.1323 16.8656 0.000134862 0.00183443 -0.00274087
1931 1007 7 47.0055 31.7476 16.2852 0.00614158 0.000987537 0.00457052
1932 1007 6 47.7627 31.142 15.646 -0.000333473 0.00124168 -0.00334095
1933 1008 6 71.4692 39.9939 25.1932 0.000901582 -0.00176867 -0.00961162
1934 1008 7 70.5235 39.6018 25.7379 0.00489945 -0.00787117 -0.00706417
1935 1008 6 69.8661 39.2088 26.611 0.00436586 0.00765031 -0.000478925
1936 1009 6 68.4404 20.5851 13.8701 -0.00347099 -0.000966932 0.00174605
1937 1009 7 69.0888 21.0216 14.7274 0.00120828 0.000454552 -0.00251665
1938 1009 6 69.3073 22.0721 14.2839 -0.000274337 -0.000688129 -0.00595391
1939 1010 6 83.949 42.8584 12.1343 -0.00126217 -0.000453303 0.000379611
1940 1010 7 83.559 43.9333 12.3302 -0.00356636 -0.00196698 0.00409786
1941 1010 6 82.6987 44.699 12.1909 -0.001565 -0.000620728 -0.000863892
1942 1011 6 66.3927 22.4691 29.2916 -0.00110526 0.000663166 0.000174767
1943 1011 7 67.537 22.3508 29.4397 -0.000281893 0.00756915 -0.000668755
1944 1011 6 68.6619 22.21 29.1912 -0.00123627 -0.000185549 -0.000595521
1945 1012 6 42.8431 21.0644 11.5026 0.00286252 -0.00160829 -0.00257964
1946 1012 7 43.1898 20.1168 12.0748 0.00487398 0.00312138 0.00403372
1947 1012 6 42.8858 19.3096 12.8506 0.00275309 0.00167481 0.00169754
1948 1013 6 61.1738 24.6052 17.107 -0.00279527 -0.00237724 -0.00247628
1949 1013 7 60.47 25.3627 17.6347 -0.00186445 -0.00016597 -0.00440892
1950 1013 6 59.4422 25.2732 18.1673 -0.00232584 0.00258646 -0.0048368
1951 1014 6 43.405 42.7127 16.6613 3.8834e-05 0.00383886 0.00203587
1952 1014 7 43.6728 42.8203 15.538 0.00254211 -0.000495221 0.00221753
1953 1014 6 44.3583 43.1392 14.6581 0.00273522 -0.000305004 0.00243688
1954 1015 6 84.1449 36.3249 21.8343 -0.00400639 -0.00617333 -0.000385259
1955 1015 7 29.9897 36.2979 22.1978 -0.00377782 0.00219987 -0.000458266
1956 1015 6 30.4408 35.266 21.9126 0.0015417 0.00251421 0.0068192
1957 1016 6 23.933 23.8577 18.2899 -0.0046983 -0.000117752 -0.00151977
1958 1016 7 24.4987 22.8545 18.4356 -0.00222193 0.00175894 0.00178786
1959 1016 6 24.3294 21.9464 19.1379 -0.00737953 -0.00179868 -0.00405489
1960 1017 6 15.0353 2.11577 4.16602 -0.00207068 0.00268953 -0.000901441
1961 1017 7 16.0975 1.93826 4.59683 -0.00374792 0.00251606 0.00316256
1962 1017 6 44.728 49.4791 5.09238 -0.00524623 0.00146358 0.00551525
1963 1018 6 38.8614 13.1801 5.88968 0.00379631 -0.000161922 -0.00497192
1964 1018 7 39.9471 13.1346 6.29538 0.00201641 -0.000258891 -0.000219732
1965 1018 6 40.8803 13.302 6.96648 -0.00149983 -0.00245137 0.00521695
ITEM: TIMESTEP
470000
ITEM: NUMBER OF ATOMS
57
ITEM: BOX BOUNDS xy xz yz pp pp pp
0.0000000000000000e+00 1.0131084100000001e+02 2.7630201000000000e+01
0.0000000000000000e+00 5.8491914999999999e+01 1.8420141000000001e+01
0.0000000000000000e+00 3.0080027000000001e+01 1.0634897000000000e+01
ITEM: ATOMS id mol type x y z vx vy vz
1909 1000 6 33.4594 11.4091 3.11039 -0.00506542 -0.00183956 -0.00730919
1910 1000 7 32.3791 11.5552 3.50938 0.000715065 0.00421012 0.00612652
1911 1000 6 31.6436 10.8483 4.06309 -0.000908129 0.00450872 0.00435133
1912 1001 6 62.8974 45.2298 2.81629 0.00146679 0.00580806 0.000868952
1913 1001 7 62.0017 45.184 3.55399 0.000515365 0.0116921 7.90982e-05
1914 1001 6 60.8578 45.0019 3.61667 0.00280558 -0.00201475 0.00205303
1915 1002 6 72.5322 25.2849 13.7053 -0.00518023 -0.0019133 -0.00179204
1916 1002 7 72.6674 26.3465 13.2581 -0.000388416 -0.000528214 0.00294499
1917 1002 6 73.0651 27.3362 12.8023 0.00355447 -0.00176572 0.00369806
1918 1003 6 46.7004 42.8768 15.7633 0.00101723 0.000831861 -0.00368533
1919 1003 7 47.0223 43.7846 15.117 -0.00574103 0.0066733 0.00115297
1920 1003 6 46.8007 44.079 14.0159 -0.00180594 0.00712417 0.000481449
1921 1004 6 46.0653 31.5674 16.2996 0.00191588 -0.0045824 -0.00242673
1922 1004 7 46.0925 30.8531 17.2142 -0.0065707 -0.00107508 0.000565378
1923 1004 6 46.0983 29.6923 17.1861 0.00507021 -0.00111978 0.00478022
1924 1005 6 63.1078 47.9039 3.90299 -0.0100158 0.00210684 0.00632845
1925 1005 7 63.2419 48.9568 4.36715 -0.00300731 0.00199278 0.004563
1926 1005 6 63.6539 48.4702 5.33685 -0.00310619 0.00103033 0.00412201
1927 1006 6 40.1412 31.0612 6.1111 -0.0028245 0.00161189 -0.00626306
1928 1006 7 40.5794 30.0405 5.77501 -0.00784547 -0.00163186 -0.00295873
1929 1006 6 41.1522 29.1966 6.32988 -0.00500493 0.000930511 -0.00199406
1930 1007 6 42.2324 32.8244 20.8316 0.000328783 0.00286911 0.000120653
1931 1007 7 41.9146 32.7313 19.7202 -0.00090488 0.00557134 0.000246932
1932 1007 6 42.7733 32.6719 18.9407 -0.00173125 0.000389069 -0.000268656
1933 1008 6 64.2345 48.3126 23.362 -0.00904816 0.00164577 0.00133082
1934 1008 7 64.0156 47.3474 23.9665 -0.00468568 -0.000224997 -7.64792e-05
1935 1008 6 64.1863 46.2833 24.3997 -0.000180725 -0.000353026 -0.00216576
1936 1009 6 17.0479 15.1687 13.8404 0.00394532 -0.000252861 -0.00076601
1937 1009 7 17.4668 15.0162 14.9114 0.00325958 -0.000145519 -0.000482549
1938 1009 6 18.4777 14.5087 14.6493 0.00113725 -0.00485154 0.000445071
1939 1010 6 30.1365 43.186 11.2693 0.000262847 0.00225497 -0.00169064
1940 1010 7 84.5228 43.7735 11.7556 -0.00600589 -0.00301732 -0.00658982
1941 1010 6 83.7711 43.852 12.6356 0.000529233 0.00251575 -0.00150076
1942 1011 6 70.8679 25.9254 26.5565 0.00518249 0.00244855 0.00163022
1943 1011 7 70.8205 24.8733 27.0422 0.00336151 0.00560834 0.00829728
1944 1011 6 70.3853 23.8851 27.4676 0.00273264 0.00268255 0.000856726
1945 1012 6 37.408 18.4517 10.1203 -0.000828772 -5.57639e-05 -0.00205785
1946 1012 7 38.1028 19.1409 9.49771 -0.00300934 0.00147511 -0.00279654
1947 1012 6 38.9518 19.93 9.54645 -0.00237125 0.00085442 -0.00386269
1948 1013 6 61.1915 27.0904 9.58412 0.000242496 0.000679516 -0.00067766
1949 1013 7 61.6457 26.5114 10.4819 0.00193524 -0.000156195 -0.00207299
1950 1013 6 62.5793 26.6683 11.1541 0.00310994 -0.000688773 -0.00358001
1951 1014 6 41.2208 41.5796 14.7688 0.00174275 0.00168206 0.00661642
1952 1014 7 40.277 40.9072 14.8138 0.00475126 -0.00297544 0.000108105
1953 1014 6 39.6793 39.9755 15.161 0.00787525 -0.00737002 -0.00630694
1954 1015 6 84.5321 39.9773 18.3845 -0.00180867 -0.00325431 -0.000225151
1955 1015 7 85.4177 40.2359 19.0939 0.00127311 -0.000991611 -0.00489777
1956 1015 6 85.7431 39.2628 19.6386 0.00211081 0.00120844 -0.00146751
1957 1016 6 24.7207 24.4273 16.0114 -0.00221237 -0.00427051 0.00128163
1958 1016 7 24.9469 24.0709 14.9299 -0.00404651 -0.00293995 0.000459608
1959 1016 6 24.466 24.3116 13.9016 -0.00475827 -0.000435362 0.00137861
1960 1017 6 36.1927 15.9815 29.4004 -0.00712734 -0.00145366 0.00117676
1961 1017 7 36.7308 16.9479 29.7496 -0.00187226 -0.0064035 0.00677862
1962 1017 6 18.6975 7.34074 0.0438127 0.00351633 -0.00601436 0.000140306
1963 1018 6 51.3472 23.0058 8.83168 0.00479461 -0.00344342 0.00267973
1964 1018 7 50.1978 23.0665 8.97502 0.00475196 -0.000534405 0.00110467
1965 1018 6 49.0593 22.8813 8.83828 0.00457472 0.000518501 0.0011544
ITEM: TIMESTEP
475000
ITEM: NUMBER OF ATOMS
57
ITEM: BOX BOUNDS xy xz yz pp pp pp
0.0000000000000000e+00 1.0131084100000001e+02 2.7630201000000000e+01
0.0000000000000000e+00 5.8491914999999999e+01 1.8420141000000001e+01
0.0000000000000000e+00 3.0080027000000001e+01 1.0634897000000000e+01
ITEM: ATOMS id mol type x y z vx vy vz
1909 1000 6 38.6883 30.534 25.916 -0.00110785 -0.00123498 -0.00226751
1910 1000 7 39.5997 30.3357 25.2251 -0.00120301 0.00334507 -0.00370792
1911 1000 6 39.7078 30.247 24.0728 -0.00455148 -0.00761199 -0.00317924
1912 1001 6 41.3724 3.3072 3.63973 -0.00307754 0.00227317 0.00622378
1913 1001 7 40.5144 3.61357 2.91959 -0.00385381 0.00212794 0.00708681
1914 1001 6 39.9176 4.52429 2.51952 -0.00226303 0.00237546 0.00527714
1915 1002 6 73.6665 25.9928 14.0976 -0.00623348 -0.00141045 -0.000235854
1916 1002 7 73.7765 26.8305 13.3028 0.00141351 -0.001646 0.000574403
1917 1002 6 73.8331 27.8314 12.7194 0.00509603 -0.00193981 0.000427744
1918 1003 6 40.0507 35.7578 16.7798 -0.0100866 0.00150777 0.00277437
1919 1003 7 39.9174 34.6088 16.8655 -0.00375288 0.000822002 0.00343149
1920 1003 6 39.0095 33.946 17.1567 0.000755673 -0.00389592 0.0067508
1921 1004 6 42.4574 32.8633 16.5592 -0.00215923 0.00238445 -0.000228752
1922 1004 7 43.4087 32.5397 15.9781 -0.00163501 0.00102129 0.0013883
1923 1004 6 43.4846 31.6858 15.1949 -0.00221111 0.00288598 -0.000700653
1924 1005 6 67.6603 46.8377 4.61323 0.00675771 0.000617689 -0.00322036
1925 1005 7 67.9455 47.4468 5.55642 0.00394501 -0.0082155 0.00333501
1926 1005 6 69.056 47.4374 5.21919 0.00354896 0.00309923 0.00171439
1927 1006 6 36.5401 30.7213 6.51826 -0.00267587 0.00250889 -0.00261504
1928 1006 7 35.4459 30.743 6.1325 -0.00385909 0.00303362 0.000770791
1929 1006 6 34.7256 29.9261 5.72967 -0.00466255 0.00379906 0.000655272
1930 1007 6 45.8219 32.3172 17.0052 -0.0068897 -0.00183926 0.00644838
1931 1007 7 46.1928 31.2202 17.0657 0.00734322 0.0022926 -0.00588025
1932 1007 6 46.8209 30.938 18.0009 0.00422829 -0.00214281 -0.00512628
1933 1008 6 40.0311 36.8878 3.09725 6.87046e-05 0.00660057 0.0062597
1934 1008 7 39.2711 36.4571 3.86002 -0.00102654 0.00331522 0.00331365
1935 1008 6 38.8355 36.1448 4.8904 0.000192138 -0.00704431 0.000688275
1936 1009 6 18.8836 14.0949 14.9284 0.000654024 -0.00180516 0.00245972
1937 1009 7 18.6525 13.1075 14.3649 -0.0016159 -0.00027841 0.000715474
1938 1009 6 18.2111 13.5472 13.3851 0.00664049 0.00260041 -0.00171277
1939 1010 6 81.5077 42.5554 12.7626 0.000343441 -0.00570192 -0.00246021
1940 1010 7 82.3101 43.2588 12.3073 -0.00315211 -0.00371036 -0.00554326
1941 1010 6 82.941 44.2248 12.4269 -0.00144815 -0.00480811 -0.00566427
1942 1011 6 70.4272 26.3071 29.0298 -0.00119741 2.23952e-05 0.000290433
1943 1011 7 70.6772 27.0825 28.2043 -3.66676e-05 0.000649395 0.00123097
1944 1011 6 70.7563 28.0972 27.6465 -0.00060254 0.000825676 0.00147145
1945 1012 6 36.1077 20.2441 9.19342 0.000496948 0.00113105 -0.000872457
1946 1012 7 36.2942 20.7964 8.19058 -0.00291871 -0.00497154 -0.0048682
1947 1012 6 37.0982 21.1318 7.42445 -0.00421928 0.000379753 -0.00389009
1948 1013 6 61.6522 31.1192 11.5529 0.00259315 0.0058051 0.00227866
1949 1013 7 60.7577 31.857 11.6102 -0.00219636 -0.000304354 0.00616851
1950 1013 6 60.5234 32.7922 12.257 -0.0024171 0.00257069 0.00193134
1951 1014 6 43.8798 38.4133 20.0415 -0.0014435 -0.00410932 0.00551006
1952 1014 7 42.7957 38.7866 19.867 -0.00148657 -0.00512463 0.00360562
1953 1014 6 41.9381 39.2253 19.2206 6.28417e-05 -0.00316859 0.00287744
1954 1015 6 32.3407 41.3654 16.0693 -0.00412683 0.00311399 -0.000985614
1955 1015 7 32.6598 41.6158 17.1601 -0.00101412 0.00596923 -0.00255163
1956 1015 6 33.5304 40.9058 17.456 -0.00548109 0.00139045 -0.000394937
1957 1016 6 24.0071 22.2713 15.8652 -7.10924e-05 0.000155011 -0.00443403
1958 1016 7 24.056 21.5084 16.7388 -0.00138607 0.00238416 -0.00241373
1959 1016 6 24.7393 21.4187 17.6724 -0.00245582 0.00447455 -0.00142992
1960 1017 6 16.8591 5.23917 2.73595 -0.00353136 0.003285 -0.00458868
1961 1017 7 16.1555 4.32183 2.8294 0.00321756 -0.00125964 0.00161769
1962 1017 6 15.4288 3.45259 3.07913 -0.00138211 0.00310111 0.00341181
1963 1018 6 57.214 16.0266 13.9729 -0.000361339 -0.00124566 0.000750529
1964 1018 7 57.879 16.4568 13.1256 -0.000362212 0.00101637 0.00189834
1965 1018 6 58.2241 17.059 12.1941 -0.00305907 -0.00454305 -0.00269533
ITEM: TIMESTEP
480000
ITEM: NUMBER OF ATOMS
57
ITEM: BOX BOUNDS xy xz yz pp pp pp
0.0000000000000000e+00 1.0131084100000001e+02 2.7630201000000000e+01
0.0000000000000000e+00 5.8491914999999999e+01 1.8420141000000001e+01
0.0000000000000000e+00 3.0080027000000001e+01 1.0634897000000000e+01
ITEM: ATOMS id mol type x y z vx vy vz
1909 1000 6 39.4816 16.3082 13.7789 0.000187706 0.00222775 -0.000620384
1910 1000 7 38.7016 17.1481 13.9622 -0.00466545 -0.0014211 -0.0045503
1911 1000 6 38.5744 18.213 13.5182 -0.00474609 -0.000283202 -0.00179812
1912 1001 6 48.9142 10.7246 4.56677 0.00397193 -0.000379053 0.00509859
1913 1001 7 49.3055 9.64108 4.71297 0.00328253 -0.00118951 0.00093671
1914 1001 6 50.1557 9.01734 5.19642 0.000848569 -0.00389267 0.00172974
1915 1002 6 74.6603 27.6723 13.3579 -0.00121049 0.00781589 -0.00137404
1916 1002 7 74.7164 27.5891 14.5135 0.000671164 0.0045037 -0.00170407
1917 1002 6 74.5666 27.6836 15.6598 -0.000813279 -0.00267362 -0.00130669
1918 1003 6 26.1599 10.5674 0.504063 -0.00298612 0.00653743 -0.00087758
1919 1003 7 25.4048 10.1861 1.29767 0.0028678 0.00370016 0.00332952
1920 1003 6 25.3963 10.2372 2.45768 0.0105894 0.00105656 0.00350209
1921 1004 6 39.9515 34.2239 12.1992 0.0042623 0.00161941 0.00329168
1922 1004 7 40.2561 35.3106 11.9277 0.00166432 0.00102295 -0.00201067
1923 1004 6 40.8165 35.6539 10.9704 -0.00113286 -0.00201741 -0.00473822
1924 1005 6 69.1508 33.7379 3.07185 0.00324925 0.000156527 0.00329007
1925 1005 7 68.6158 33.3811 4.03541 0.00385416 -0.000470507 0.00339376
1926 1005 6 69.5519 33.6732 4.65607 0.00422273 -0.000822686 0.00300358
1927 1006 6 35.9468 29.5795 4.30772 -0.00135349 0.00502898 -0.000419734
1928 1006 7 36.1252 29.5731 5.45435 -0.00242889 0.00328184 -0.000262082
1929 1006 6 36.4031 30.3977 6.22312 -0.00304637 0.0020907 0.00123876
1930 1007 6 44.4976 30.6293 10.3842 -0.000722704 -0.00163079 -0.00151131
1931 1007 7 45.3632 30.7098 11.1517 -0.00169347 -0.000210696 -0.000565376
1932 1007 6 45.2204 30.1393 12.1532 -0.000552937 -0.0028915 -0.00192992
1933 1008 6 54.5232 47.0945 28.0249 -9.06754e-05 -0.00278104 0.00157647
1934 1008 7 53.6243 46.8398 28.7119 -0.0013191 -0.00357112 -0.000323752
1935 1008 6 52.8474 46.9701 29.5654 0.00167674 -0.00799185 0.00307863
1936 1009 6 18.1848 14.321 16.6229 0.00347514 0.00149928 -0.00241741
1937 1009 7 18.4068 13.8713 15.5768 9.61137e-05 0.00116984 -0.00299276
1938 1009 6 18.1879 14.8031 14.9195 0.00240711 0.0022715 -0.0022008
1939 1010 6 28.9156 38.9786 8.64465 0.00318732 -0.00119492 -0.00292103
1940 1010 7 30.0156 38.6242 8.54255 0.00394286 -0.00023072 0.001872
1941 1010 6 31.049 38.4928 9.0528 0.00290513 0.00435005 0.00515381
1942 1011 6 51.8753 16.7032 1.12783 -0.000475768 -0.000523227 0.00446383
1943 1011 7 51.9473 15.6322 0.688207 0.00171084 0.000949603 0.00123388
1944 1011 6 51.9722 14.4732 0.633559 -0.000676381 0.00109128 -0.00285941
1945 1012 6 39.3348 22.736 8.3346 0.00208284 0.00134113 -0.00578217
1946 1012 7 38.3912 22.4275 7.73473 0.00169374 -4.96774e-05 -0.00445482
1947 1012 6 37.3347 21.9528 7.80127 -0.000270136 0.0046836 -0.0018666
1948 1013 6 55.0677 39.5574 10.7701 -0.00243179 -0.000958761 0.00340931
1949 1013 7 55.6878 38.9735 9.9813 -0.00540693 0.00219446 -0.00126373
1950 1013 6 56.6157 39.2311 9.33271 0.000504953 5.11478e-05 0.00634282
1951 1014 6 43.9408 35.6453 21.2255 0.00551394 -0.000183566 -0.00101021
1952 1014 7 44.6759 36.4349 21.651 0.00239765 0.00488136 -0.00502515
1953 1014 6 45.7297 36.8881 21.8242 0.00120452 0.00651113 -0.00203112
1954 1015 6 35.3104 35.923 20.1947 0.000705817 0.00290011 -0.00179124
1955 1015 7 34.7314 36.9271 20.0902 -0.0027195 0.00144692 0.00322138
1956 1015 6 33.8103 36.7458 19.4058 -0.000198837 0.00252942 -0.000457762
1957 1016 6 23.2142 19.2345 15.1529 -0.00174153 0.0087323 -0.000202989
1958 1016 7 23.753 19.0139 14.1486 -0.000552086 0.00404157 0.00146563
1959 1016 6 23.576 19.3761 13.0604 0.0035987 0.00258127 0.000304295
1960 1017 6 37.6284 14.8433 25.5584 0.00224092 -0.000792905 0.00244735
1961 1017 7 36.469 14.8091 25.5639 0.00208912 0.00223404 -0.0107462
1962 1017 6 35.3255 14.6173 25.5232 0.00235299 -0.00137906 -0.00112361
1963 1018 6 53.6615 16.1874 15.3277 0.000504808 0.00694057 -0.000255724
1964 1018 7 52.8438 16.2171 16.1498 -4.82837e-05 0.00179371 -0.000619782
1965 1018 6 51.8136 16.1481 16.6819 -0.000846871 0.000964297 -0.00227354
ITEM: TIMESTEP
485000
ITEM: NUMBER OF ATOMS
57
ITEM: BOX BOUNDS xy xz yz pp pp pp
0.0000000000000000e+00 1.0131084100000001e+02 2.7630201000000000e+01
0.0000000000000000e+00 5.8491914999999999e+01 1.8420141000000001e+01
0.0000000000000000e+00 3.0080027000000001e+01 1.0634897000000000e+01
ITEM: ATOMS id mol type x y z vx vy vz
1909 1000 6 42.4881 18.6737 3.3604 0.000825934 0.00417734 -0.00388475
1910 1000 7 41.5316 18.2995 2.81954 -0.000720758 -0.000674021 0.00220735
1911 1000 6 41.2793 17.3137 2.26113 0.000673704 -0.00201403 0.00394284
1912 1001 6 71.9562 45.2175 11.0104 0.00182745 -0.00659854 0.00240805
1913 1001 7 71.8993 45.1078 9.85576 -0.000238965 -0.0059296 0.00244643
1914 1001 6 72.4544 45.3625 8.86954 -0.00747714 0.00412514 0.000969325
1915 1002 6 19.0592 24.0473 10.7216 -0.00482515 0.000867281 0.00154511
1916 1002 7 19.4044 23.1714 10.044 -0.00135347 0.00087081 0.00330892
1917 1002 6 19.8732 22.4942 9.22722 0.000590906 0.00118745 0.00416246
1918 1003 6 48.1468 17.682 22.5906 -0.00476072 -0.00576356 0.00315979
1919 1003 7 49.2532 17.3482 22.6906 -0.00309004 -0.00189408 -0.00240898
1920 1003 6 49.7546 16.4555 23.2383 0.00317783 0.00216967 -0.00152439
1921 1004 6 41.5101 32.8083 13.2083 0.00364806 0.000357973 0.000272239
1922 1004 7 42.5546 32.3105 13.1153 0.00215454 -0.00333255 0.0032486
1923 1004 6 43.3181 32.1379 13.973 0.00366015 0.00392258 0.00336867
1924 1005 6 89.4167 47.478 29.1016 0.00314584 -0.0052929 -0.00254972
1925 1005 7 89.5626 48.4008 29.7865 -0.00153369 -0.0048991 -0.00208338
1926 1005 6 90.57 48.6271 29.2567 -0.00705465 0.00568794 -0.00805826
1927 1006 6 39.2589 30.3985 6.69511 -0.00273381 -0.00381484 -0.000629268
1928 1006 7 38.2227 30.7228 7.10464 -0.0017082 -0.00155419 0.000175651
1929 1006 6 37.7413 31.7552 7.32985 -0.00120228 -0.000304972 -0.00446936
1930 1007 6 45.2608 18.8918 1.40965 0.000923981 -0.00609308 -0.000647205
1931 1007 7 45.2676 18.5158 2.50661 0.00198056 -0.00477645 -0.000202399
1932 1007 6 45.9932 19.0573 3.23385 0.00450593 -0.00556763 -0.00213306
1933 1008 6 48.9592 44.7472 26.6675 0.00194331 -0.000250632 -0.00493214
1934 1008 7 50.0735 44.6549 26.9752 0.00083013 0.00278756 1.03998e-05
1935 1008 6 51.0294 44.1871 27.4403 0.00201438 0.00101962 -0.00420184
1936 1009 6 17.9587 14.5353 17.3223 -0.00904355 -0.00411782 -0.00148096
1937 1009 7 17.7248 14.4927 16.1868 0.00124936 -0.0062094 -0.0035223
1938 1009 6 18.4058 15.3588 15.8203 -0.000490662 -0.00253218 0.0019343
1939 1010 6 25.6076 36.7397 9.91242 -0.0048933 0.00239338 -0.00252081
1940 1010 7 25.6317 35.6664 9.4727 0.00168508 0.00275944 -0.00305435
1941 1010 6 26.1573 34.6325 9.45243 0.0019724 0.00276783 0.00396893
1942 1011 6 70.5794 27.854 29.264 -8.9201e-05 -0.000286001 0.00241158
1943 1011 7 70.7373 26.7721 29.6512 -0.00143853 -0.000515323 0.00232112
1944 1011 6 70.51 25.6716 29.9411 -0.000838762 -0.00260281 -0.005133
1945 1012 6 39.4173 19.2563 10.4249 -0.00161095 -0.00415702 -0.00235272
1946 1012 7 39.8376 20.2703 10.0498 -0.00174297 -0.00266715 0.00152659
1947 1012 6 39.8946 21.0028 9.15196 0.00317792 -0.0020341 0.00235543
1948 1013 6 25.9459 3.34954 9.06762 -0.000549313 -0.00390115 -0.000920519
1949 1013 7 54.2275 51.2358 10.028 0.00459214 0.00145367 -0.00457093
1950 1013 6 54.8822 50.454 10.583 0.00597946 0.00399623 -0.00262554
1951 1014 6 42.5047 32.9024 20.0126 0.000527933 -0.00256943 0.000406248
1952 1014 7 41.8361 33.2052 19.1147 0.000445569 -0.00298675 0.000326869
1953 1014 6 40.9521 33.0544 18.3787 -0.000253587 -0.00279704 0.00112775
1954 1015 6 31.5156 41.9561 16.1191 0.00699621 0.00309329 -0.00214398
1955 1015 7 31.9359 41.7216 15.0594 0.00781446 0.00510178 -0.00226392
1956 1015 6 32.7123 40.8631 15.1584 0.00183219 -0.000556783 -0.00442349
1957 1016 6 20.7969 15.7454 17.7544 -0.00043581 0.00174841 -0.00430793
1958 1016 7 20.157 16.6941 17.5589 0.0011925 0.00414968 0.00201579
1959 1016 6 19.8935 17.6177 18.2101 -0.00318005 -0.00323224 0.0107164
1960 1017 6 39.8469 12.5364 23.8766 -9.44163e-05 0.000198902 0.000500415
1961 1017 7 39.6806 11.5879 24.5232 0.0075808 -0.00540051 -0.00574063
1962 1017 6 39.6258 10.7041 25.2729 -0.00535552 0.00205153 0.00209879
1963 1018 6 54.2278 17.3786 12.3789 0.00382466 -0.00495686 0.00197202
1964 1018 7 54.5417 16.8465 13.3606 0.00229204 -0.0034301 0.00328966
1965 1018 6 54.5214 16.1561 14.2946 -0.000360979 9.32292e-05 0.00583597
ITEM: TIMESTEP
490000
ITEM: NUMBER OF ATOMS
57
ITEM: BOX BOUNDS xy xz yz pp pp pp
0.0000000000000000e+00 1.0131084100000001e+02 2.7630201000000000e+01
0.0000000000000000e+00 5.8491914999999999e+01 1.8420141000000001e+01
0.0000000000000000e+00 3.0080027000000001e+01 1.0634897000000000e+01
ITEM: ATOMS id mol type x y z vx vy vz
1909 1000 6 38.9761 14.6942 4.52377 0.00228323 -0.00345932 0.00306494
1910 1000 7 39.4845 14.9897 3.52295 0.000162307 -0.000896536 0.00274434
1911 1000 6 40.5339 14.7684 3.07908 -0.00126567 -0.000899294 -0.000630364
1912 1001 6 61.9876 10.8582 25.8273 -0.000418786 -0.00405409 5.28359e-05
1913 1001 7 61.559 9.96816 26.4378 -0.0081674 0.00305316 0.00497534
1914 1001 6 88.9973 57.4453 27.5169 0.00117755 0.0046967 0.00721655
1915 1002 6 74.166 26.5468 11.6539 0.00421563 0.00173888 -0.000342874
1916 1002 7 74.0356 27.604 12.1128 -0.00264726 0.00107002 -0.000752754
1917 1002 6 73.6669 28.5601 12.6563 -0.0062748 -0.00297781 0.00390759
1918 1003 6 80.4623 51.8603 26.1425 0.00513732 0.00142413 0.0025614
1919 1003 7 80.5982 53.0113 26.1885 0.000881801 0.00202155 0.00018613
1920 1003 6 79.9368 53.8925 25.8219 -0.00488471 -0.00107496 0.00314659
1921 1004 6 43.3885 31.498 17.2112 -0.00293019 1.03512e-07 0.000347101
1922 1004 7 44.516 31.2223 17.2181 -0.00227831 0.0026642 0.00028257
1923 1004 6 45.1077 30.7498 18.0984 -0.00145442 0.00264701 -0.000280507
1924 1005 6 68.8186 26.6944 3.25426 0.00175225 -0.0019284 0.00269344
1925 1005 7 69.1845 27.7314 2.88971 -0.00194614 -0.00027722 0.00367822
1926 1005 6 68.1322 28.1713 3.10418 -0.00310774 -0.00390938 0.00542869
1927 1006 6 35.2495 30.6752 6.00439 -0.0059063 0.00140918 -0.00115565
1928 1006 7 35.5569 31.3353 6.908 -0.00296623 0.00108878 -0.00192166
1929 1006 6 36.5816 31.645 7.35782 -0.0016081 -0.00394755 -0.00154761
1930 1007 6 42.6018 11.2241 1.52905 0.000465732 -0.00498354 0.00299229
1931 1007 7 43.2581 11.1262 2.48011 0.00376468 0.00201175 0.00143665
1932 1007 6 43.9739 10.2127 2.52189 0.0011291 0.000217932 0.00737459
1933 1008 6 53.3415 37.7757 27.6017 -0.00180305 -0.00687443 -0.000455614
1934 1008 7 52.4778 38.3761 27.1133 0.00155993 -0.00323469 -0.00192797
1935 1008 6 51.6532 38.6465 26.3413 -0.00281763 -0.0052017 0.00205915
1936 1009 6 18.4787 14.5218 15.259 -0.00183843 0.000334632 -0.000571518
1937 1009 7 17.6071 14.0446 14.6603 -0.000120962 -0.00313272 -0.00030768
1938 1009 6 18.0602 14.0956 13.5925 0.000622246 -0.00415489 -4.11798e-05
1939 1010 6 33.1412 38.7072 10.7997 0.00088486 -0.000279086 0.00380352
1940 1010 7 32.081 38.3929 10.4489 0.00135708 -0.000924456 0.00295475
1941 1010 6 31.138 37.7484 10.6516 0.00206087 -0.00239063 0.00156746
1942 1011 6 70.39 25.0431 29.2566 0.00480617 0.00100561 -0.00219331
1943 1011 7 52.1034 15.0576 0.128304 0.00185706 0.00110023 -0.00184399
1944 1011 6 51.881 15.5471 1.15683 0.00109196 -0.00297963 -6.78236e-05
1945 1012 6 36.7082 15.5747 17.7421 -0.00347001 0.00166762 -0.0016505
1946 1012 7 36.4474 15.5066 16.6139 -0.00297251 -0.00127282 -0.001588
1947 1012 6 36.732 15.0212 15.5993 -0.00121215 -0.00231026 -0.000597901
1948 1013 6 36.8548 7.15006 9.99297 -0.00317738 -0.0024485 -0.0012204
1949 1013 7 36.4839 7.90136 9.18948 0.00520447 0.00455847 0.00146223
1950 1013 6 36.6648 8.01716 8.04853 -0.000308553 0.0015502 0.000282526
1951 1014 6 41.145 33.4159 13.0028 -0.00363622 0.00353757 -0.00492405
1952 1014 7 40.1969 33.8068 13.5443 -0.00219521 0.00626961 -0.00437367
1953 1014 6 39.6338 34.2959 14.4328 -0.00219137 -0.00461738 0.00162128
1954 1015 6 82.6879 43.8948 13.0194 0.000845308 0.00780476 0.00581958
1955 1015 7 81.7346 43.9297 13.6861 -0.00218986 -0.00063182 0.00192158
1956 1015 6 82.036 43.629 14.767 -0.00293364 0.00728226 0.00433058
1957 1016 6 24.7981 17.3982 12.0538 -0.00671353 0.00322776 0.00293922
1958 1016 7 24.563 17.4955 13.1864 -0.00425135 0.00303248 0.00346708
1959 1016 6 23.6359 17.2201 13.8277 0.0020802 -0.00894095 0.00747825
1960 1017 6 33.1665 16.348 26.4088 0.0018483 -0.00316676 0.000665492
1961 1017 7 34.2007 16.0025 26.8045 -0.00161485 -0.00586801 0.0073587
1962 1017 6 35.191 15.5062 27.1494 0.00199171 -0.00520634 -0.00204521
1963 1018 6 50.7572 13.7405 22.6888 0.00201337 -0.00492174 -0.00195967
1964 1018 7 49.8294 13.4741 22.0457 -0.00321725 0.00242514 0.00254325
1965 1018 6 48.9755 13.5448 21.2613 -0.000303672 0.00486284 -0.000408973
ITEM: TIMESTEP
495000
ITEM: NUMBER OF ATOMS
57
ITEM: BOX BOUNDS xy xz yz pp pp pp
0.0000000000000000e+00 1.0131084100000001e+02 2.7630201000000000e+01
0.0000000000000000e+00 5.8491914999999999e+01 1.8420141000000001e+01
0.0000000000000000e+00 3.0080027000000001e+01 1.0634897000000000e+01
ITEM: ATOMS id mol type x y z vx vy vz
1909 1000 6 43.2114 23.5364 5.76929 -0.00072174 -0.00101645 0.000181712
1910 1000 7 43.4758 22.688 5.02247 0.000428538 -0.00092702 0.000487315
1911 1000 6 43.5395 22.6523 3.86404 0.00357081 -0.000420881 0.000644491
1912 1001 6 62.2714 14.2017 27.732 0.000429754 0.00535885 -0.00217108
1913 1001 7 61.8105 14.7943 28.618 -0.00158957 0.00334711 -0.00187574
1914 1001 6 60.9886 14.7539 29.4356 0.00106945 -0.00156331 0.000554311
1915 1002 6 72.3782 27.4038 12.89 0.00286158 0.00183322 -0.000674585
1916 1002 7 73.251 27.1349 12.1749 0.000899895 0.00191302 -0.00309896
1917 1002 6 73.945 26.686 11.3611 7.57971e-05 -0.000948073 -0.00222364
1918 1003 6 49.4757 13.2714 20.3539 -0.00189756 0.000201221 0.00662719
1919 1003 7 50.3114 13.0559 21.1289 0.00146339 0.00304523 0.00379353
1920 1003 6 50.4477 13.3666 22.2394 0.00584309 0.00637294 0.00232493
1921 1004 6 42.5481 32.6889 15.9732 -0.00168996 -0.000215586 0.00163939
1922 1004 7 41.9311 32.6344 14.9914 0.00203234 -0.00397389 -0.000491215
1923 1004 6 41.8067 33.4789 14.2042 -0.00515992 -0.00274497 0.00196393
1924 1005 6 63.9278 15.2877 6.3627 -0.000556315 0.00828141 0.00268433
1925 1005 7 64.721 14.4458 6.42703 -0.00450514 0.00476371 0.00532985
1926 1005 6 65.5617 15.2372 6.30952 -0.00101899 -0.000240367 -0.0034291
1927 1006 6 39.4499 29.6187 5.43567 -0.00244007 -0.00405067 -0.00120174
1928 1006 7 38.745 30.4689 5.79191 -0.000506903 -0.00282561 -0.00030063
1929 1006 6 37.7382 30.4809 6.3702 -0.000537734 -0.00115523 -0.000388874
1930 1007 6 48.2425 10.6228 3.27896 -0.00225405 0.00256676 0.00203684
1931 1007 7 47.3667 9.86303 3.30334 -0.00155763 0.00176691 0.0021276
1932 1007 6 46.5541 9.98492 2.48265 -0.00112282 0.00027354 0.00147528
1933 1008 6 61.7858 39.38 27.9878 0.00344456 -0.00223708 -0.000462491
1934 1008 7 61.7155 39.897 29.0235 0.00235069 0.00410248 -0.00370161
1935 1008 6 42.8015 29.7218 -0.111164 0.00165556 -0.000798709 -0.00168123
1936 1009 6 20.5526 16.3919 15.3555 -0.000913826 0.00320755 -0.00116146
1937 1009 7 21.6447 16.4651 15.7398 0.00152596 8.79257e-05 -0.00750087
1938 1009 6 21.8238 17.6021 15.5866 0.000337488 0.00144532 0.00118397
1939 1010 6 31.7172 36.1543 20.033 0.00441502 -0.00147512 0.000764538
1940 1010 7 30.6715 36.6563 20.0547 0.00421466 -0.00171879 -0.00325087
1941 1010 6 85.2995 37.5789 20.3618 0.00144552 -0.0050176 0.000956377
1942 1011 6 69.8873 24.8335 28.7296 0.00198421 0.00178865 -0.00423092
1943 1011 7 70.2267 25.779 29.3094 -0.00165384 0.000207716 0.00047709
1944 1011 6 70.473 26.8896 29.5395 0.000844342 -0.00101831 0.00371961
1945 1012 6 35.3771 15.5629 17.9157 -9.40757e-05 0.00401005 -0.00419144
1946 1012 7 34.7697 15.5449 18.9037 -0.000525523 0.00188532 -0.00449542
1947 1012 6 33.7117 15.6317 19.3716 -0.000484029 0.00286494 -0.00458336
1948 1013 6 72.3923 48.6772 10.6669 0.00134754 -0.00662142 -0.00267909
1949 1013 7 71.3179 48.4346 11.0334 0.0018392 -0.00434899 0.000266882
1950 1013 6 70.4594 47.7656 10.6292 -0.00183016 -3.19695e-05 0.000915956
1951 1014 6 50.4892 16.9028 21.6263 -0.00572362 0.00109718 0.00573614
1952 1014 7 50.692 17.5705 22.5526 0.00357037 0.00711066 -0.000632977
1953 1014 6 50.5425 18.5186 23.2042 -0.00388816 0.00279468 0.00393589
1954 1015 6 82.7762 38.3738 21.7029 -0.00190216 0.00660268 -7.7165e-05
1955 1015 7 82.0995 38.5939 20.782 -0.00469404 0.00578275 0.00177863
1956 1015 6 81.3043 37.7505 20.7057 0.00604627 -0.00369513 -0.00537221
1957 1016 6 25.4768 11.8929 18.2887 0.00646322 -0.00366443 -0.000640952
1958 1016 7 25.6447 12.667 19.1375 -0.00131647 0.000786694 -0.00316161
1959 1016 6 25.191 12.7871 20.1988 0.0016213 -0.00356194 -0.00141352
1960 1017 6 35.5998 16.7024 26.905 -0.00450318 0.00450696 -7.07772e-05
1961 1017 7 35.7085 15.7799 26.2104 0.00427162 0.00436721 0.00148795
1962 1017 6 35.8354 14.7696 25.6543 -0.0052678 0.00182451 0.00393062
1963 1018 6 56.2826 22.1375 20.4049 0.00212826 -0.00474962 -0.00132813
1964 1018 7 57.0245 22.9544 20.0478 -0.00595813 -0.000936915 -0.00940497
1965 1018 6 57.9098 23.479 19.5089 -0.00162527 -0.000650123 -0.00200676
ITEM: TIMESTEP
500000
ITEM: NUMBER OF ATOMS
57
ITEM: BOX BOUNDS xy xz yz pp pp pp
0.0000000000000000e+00 1.0131084100000001e+02 2.7630201000000000e+01
0.0000000000000000e+00 5.8491914999999999e+01 1.8420141000000001e+01
0.0000000000000000e+00 3.0080027000000001e+01 1.0634897000000000e+01
ITEM: ATOMS id mol type x y z vx vy vz
1909 1000 6 58.8256 30.8825 28.2632 0.00342893 -0.000155779 0.00334314
1910 1000 7 58.9114 30.4987 29.3553 0.00728706 0.000872789 0.00340141
1911 1000 6 59.397 29.5524 29.82 0.000695003 -0.00341181 0.00156472
1912 1001 6 41.4484 3.39316 0.86036 -0.00563877 0.000563777 -0.0024862
1913 1001 7 60.5202 13.9122 29.9862 -0.00232422 0.00139766 -0.000323608
1914 1001 6 61.1655 13.1566 29.3876 0.000325372 0.00211821 0.00162309
1915 1002 6 73.342 26.0306 12.9117 0.00322937 0.0035867 -0.000715067
1916 1002 7 73.2637 27.1866 12.8574 0.00135322 0.00355289 0.00127206
1917 1002 6 73.3047 28.3073 12.561 0.0023577 0.00438379 0.00455279
1918 1003 6 36.319 7.32099 8.13667 -0.00019162 0.00239388 0.0011222
1919 1003 7 36.7694 6.34262 7.70613 -0.000802417 0.00110345 0.00341568
1920 1003 6 36.3075 5.47363 7.08983 0.000127397 0.0030124 2.71924e-05
1921 1004 6 40.6436 35.5502 14.7583 -0.00440421 0.00329179 -0.00226253
1922 1004 7 40.0805 34.635 15.1973 4.97964e-05 0.00256629 0.00193879
1923 1004 6 40.0377 33.5664 14.7451 -0.00167491 0.00242691 0.00243137
1924 1005 6 30.9001 31.259 29.2641 -0.00488665 0.000499445 -0.00694955
1925 1005 7 31.1337 30.2901 28.6737 -0.00210803 -0.000860775 -0.00361778
1926 1005 6 32.1379 30.7537 28.3222 0.000199861 -0.00221403 0.0011906
1927 1006 6 40.3874 30.3185 6.38823 -0.00307492 -0.00046792 -0.00239546
1928 1006 7 39.5222 30.8444 6.95507 0.00209905 0.00907549 -0.00335251
1929 1006 6 38.4812 31.2428 6.62973 -3.27833e-05 0.00543776 -0.000985043
1930 1007 6 47.8782 10.5524 3.84107 -0.000167825 -0.000296079 0.00632953
1931 1007 7 47.4844 9.61604 3.28162 0.00438095 -0.00165295 0.00539853
1932 1007 6 46.3602 9.62315 2.99029 0.00488888 -0.00581677 0.00333688
1933 1008 6 52.7491 34.1392 21.1761 -0.00464597 0.00318548 0.00661997
1934 1008 7 51.5984 34.1132 21.3175 -0.00497206 0.00247234 0.00383378
1935 1008 6 50.5141 34.5171 21.4186 -0.00511912 0.00201551 0.00408168
1936 1009 6 22.672 18.1354 22.7584 -0.000649352 -0.00720026 0.00124462
1937 1009 7 23.5311 17.4692 22.3534 -0.00171956 -0.00616049 -0.00273562
1938 1009 6 23.5853 17.8705 21.2651 -0.00130921 1.37832e-05 -0.000438739
1939 1010 6 38.3537 37.8492 25.8046 0.00179075 0.00333872 -0.000916926
1940 1010 7 37.4129 37.2355 25.5146 0.000268409 0.00441989 0.00173337
1941 1010 6 36.7165 36.3419 25.764 0.00319859 0.0017731 0.000433426
1942 1011 6 51.5963 16.5134 0.207556 -0.00591574 -0.00398268 3.77129e-05
1943 1011 7 70.4005 26.6557 29.3102 -0.00125573 -0.00135457 0.000544397
1944 1011 6 70.3939 26.1651 28.2585 0.00394141 0.00342118 -0.00171659
1945 1012 6 32.693 16.795 15.3511 -0.00183971 -0.00129915 -0.000235527
1946 1012 7 31.5549 16.914 15.5413 -0.00163355 0.0024274 -0.00133351
1947 1012 6 30.7459 17.205 16.3202 -0.00153522 0.00305504 -0.00146585
1948 1013 6 40.2795 6.3352 13.4217 0.00826401 0.000287884 0.00284219
1949 1013 7 39.4648 6.13403 12.6196 0.00557091 0.00422027 0.00459121
1950 1013 6 39.4896 5.76261 11.5199 0.00166163 0.00701879 0.00355783
1951 1014 6 76.9828 56.9928 26.9884 -0.00251595 -0.00755927 0.0040234
1952 1014 7 48.9711 9.86411 27.8063 -0.00114653 -0.00337636 0.000937284
1953 1014 6 49.0955 10.7306 28.5675 0.00277775 -0.00621841 0.00353107
1954 1015 6 85.2189 42.9056 13.2446 -0.00400608 -0.00362751 -0.00449274
1955 1015 7 85.345 43.5064 12.2559 0.00641134 -0.00688226 -0.00514204
1956 1015 6 29.5191 42.9415 11.4128 -0.00445612 0.00267934 -0.00426095
1957 1016 6 24.9844 9.97048 14.5785 0.00352728 -0.00378697 0.000726631
1958 1016 7 24.0589 9.40326 14.9902 0.000687601 0.00363873 0.00457391
1959 1016 6 23.6313 9.25941 16.0593 0.00130189 0.0110476 0.00581657
1960 1017 6 34.3725 12.5802 23.7997 -0.0017375 -0.00689414 -0.00567599
1961 1017 7 33.9173 11.598 24.2163 0.000888975 -0.00223586 0.00817609
1962 1017 6 33.323 10.7023 24.6529 -0.00261205 -0.00284473 0.00216106
1963 1018 6 53.0234 18.6512 18.8194 -0.00132969 0.00174028 -0.0037833
1964 1018 7 53.6689 17.774 18.4202 0.00228058 -0.000914638 0.00788844
1965 1018 6 54.5794 17.158 18.0451 0.00159934 0.00253834 0.000563888
