LAMMPS data file via write_data, version 4 Jul 2026, timestep = 500048, units = real

1968 atoms
7 atom types
2344 bonds
7 bond types
4104 angles
9 angle types
4320 dihedrals
3 dihedral types
2592 impropers
1 improper types

0 55.260499 xlo xhi
0 47.857018 ylo yhi
0 30.080027 zlo zhi
27.630201 18.420141 10.634897 xy xz yz

Masses

1 65.38
2 1.00794
3 12.0107
4 15.9994
5 15.9994
6 12.0107
7 15.9994

Pair Coeffs # lj/cut/coul/long/omp

1 0.124 2.46155
2 0.044 2.57113
3 0.105 3.43085
4 0.06 3.11815
5 0.06 3.11815
6 0.053655 2.8
7 0.156989 3.05

Bond Coeffs # harmonic/omp

1 172.604 1.79543
2 160.291 1.84027
3 357.44 1.08142
4 391.67 1.458
5 646.681 1.31194
6 462.655 1.37926
7 600 1.16

Dihedral Coeffs # harmonic/omp

1 1.25 -1 2
2 6.73711 -1 2
3 3.36856 -1 2

Atoms # full

41 444 3 0.60534 6.649890000000001 6.79557 1.66959 0 0 0
43 444 3 0.60538 6.649889999999999 3.839299999999999 5.8504 0 0 0
55 444 3 -0.03013 5.59309 3.2291799999999995 6.71326 0 0 0
99 444 5 -0.54682 6.4883600005070825 6.88883 2.9331 0 0 0
104 444 5 -0.5468499999999999 6.488359999999998 5.061629999999998 5.51716 0 0 0
1925 450 7 -0.35 5.099641417968012 3.5316747674841764 0.6384933083486865 1 0 0
1926 450 7 -0.35 4.822116658432906 3.870586998115175 0.42670696730412383 1 0 0
5 444 1 0.96279 9.21008 5.317429999999998 1.79652 0 0 0
6 444 1 0.96274 9.210069999999998 3.466249999999998 4.41448 0 0 0
7 444 1 0.96273 10.813280000000002 6.24303 4.41449 0 0 0
8 444 1 0.9627599999999999 7.606939999999996 6.2429999999999986 4.41447 0 0 0
27 444 2 0.11531 13.99859 5.03149 6.79346 0 0 0
39 444 3 0.60541 9.21009 2.36116 1.66958 0 0 0
42 444 3 0.60537 11.77028 3.83927999999999 5.8504 0 0 0
44 444 3 0.60545 11.77028 6.79557 1.66957 0 0 0
51 444 3 -0.03017 9.21008 1.1408999999999994 0.80673 0 0 0
54 444 3 -0.03011 12.827059999999998 3.2291799999999995 6.71326 0 0 0
75 444 3 -0.09139 13.930600000000005 3.9940399999999787 7.11862 0 0 0
82 444 4 -1.02787 9.21011 5.317429999999998 3.75999 0 0 0
95 444 5 -0.54686 9.210089999999997 3.4902099999999994 1.07257 0 0 0
96 444 5 -0.54688 9.21009 2.17464 2.93308 0 0 0
100 444 5 -0.54688 7.627670000000001 6.23106 1.07258 0 0 0
101 444 5 -0.5468499999999999 11.931829999999998 5.06162 5.51717 0 0 0
102 444 5 -0.54687 10.79251 3.0882599999999996 5.51717 0 0 0
103 444 5 -0.54691 7.62767 3.088249999999999 5.51717 0 0 0
105 444 5 -0.54686 11.93183 6.88884 2.93309 0 0 0
106 444 5 -0.54688 10.79251 6.23106 1.07258 0 0 0
30 444 2 0.11527 22.84173 5.0315 6.79346 0 0 0
78 444 3 -0.09129 22.909730002450008 3.994049999999999 7.11861 0 0 0
641 444 1 0.96279 27.630250000000004 5.317429999999998 1.79652 0 0 0
642 444 1 0.96274 27.630239999999997 3.466249999999998 4.41448 0 0 0
644 444 1 0.9627599999999999 26.0271 6.2429999999999986 4.41447 0 0 0
675 444 3 0.60541 27.630250000000004 2.36116 1.66958 0 0 0
677 444 3 0.60534 25.07005 6.79557 1.66959 0 0 0
679 444 3 0.60538 25.07005 3.839299999999999 5.8504 0 0 0
687 444 3 -0.03017 27.630250000000004 1.1408999999999994 0.80673 0 0 0
691 444 3 -0.03013 24.01326 3.2291799999999995 6.71326 0 0 0
718 444 4 -1.02787 27.630279999999996 5.317429999999998 3.75999 0 0 0
731 444 5 -0.54686 27.630260000000003 3.4902099999999994 1.07257 0 0 0
732 444 5 -0.54688 27.63026 2.17464 2.93308 0 0 0
735 444 5 -0.54682 24.90852 6.88883 2.9331 0 0 0
736 444 5 -0.54688 26.04784 6.23106 1.07258 0 0 0
739 444 5 -0.54691 26.047840000000164 3.088249999999999 5.51717 0 0 0
740 444 5 -0.5468499999999999 24.908530000000003 5.061629999999998 5.51716 0 0 0
643 444 1 0.96273 29.233440000000016 6.24303 4.41449 0 0 0
663 444 2 0.11531 32.41875 5.03149 6.79346 0 0 0
678 444 3 0.60537 30.190439999999995 3.83927999999999 5.8504 0 0 0
680 444 3 0.60545 30.190450000000002 6.79557 1.66957 0 0 0
690 444 3 -0.03011 31.247229999999995 3.2291799999999995 6.71326 0 0 0
711 444 3 -0.09139 32.35076000000002 3.9940399999999787 7.11862 0 0 0
737 444 5 -0.5468499999999999 30.352000000000004 5.06162 5.51717 0 0 0
738 444 5 -0.54687 29.212679999999995 3.0882599999999996 5.51717 0 0 0
741 444 5 -0.54686 30.352000000000004 6.88884 2.93309 0 0 0
742 444 5 -0.54688 29.212679999999995 6.23106 1.07258 0 0 0
666 444 2 0.11527 41.2619 5.0315 6.79346 0 0 0
714 444 3 -0.09129 41.32989999999998 3.994049999999999 7.11861 0 0 0
1327 444 3 -0.03013 42.43342 3.2291799999999995 6.71326 0 0 0
1371 444 5 -0.54682 43.328690003595185 6.88883 2.9331 0 0 0
1376 444 5 -0.5468499999999999 43.32869 5.061629999999998 5.51716 0 0 0
1277 444 1 0.96279 46.05042000000002 5.317429999999998 1.79652 0 0 0
1278 444 1 0.96274 46.05040000000001 3.466249999999998 4.41448 0 0 0
1279 444 1 0.96273 47.65361 6.24303 4.41449 0 0 0
1280 444 1 0.9627599999999999 44.447270000000024 6.2429999999999986 4.41447 0 0 0
1311 444 3 0.60541 46.05042 2.36116 1.66958 0 0 0
1313 444 3 0.60534 43.49022000000001 6.79557 1.66959 0 0 0
1314 444 3 0.60537 48.610610000000015 3.83927999999999 5.8504 0 0 0
1315 444 3 0.60538 43.49022 3.839299999999999 5.8504 0 0 0
1316 444 3 0.60545 48.610609999999994 6.79557 1.66957 0 0 0
1323 444 3 -0.03017 46.05041000000001 1.1408999999999994 0.80673 0 0 0
1326 444 3 -0.03011 49.6674 3.2291799999999995 6.71326 0 0 0
1354 444 4 -1.02787 46.050450000000005 5.317429999999998 3.75999 0 0 0
1367 444 5 -0.54686 46.0504300000005 3.4902099999999994 1.07257 0 0 0
1368 444 5 -0.54688 46.05042000000003 2.17464 2.93308 0 0 0
1372 444 5 -0.54688 44.468000003595186 6.23106 1.07258 0 0 0
1373 444 5 -0.5468499999999999 48.77216000000001 5.06162 5.51717 0 0 0
1374 444 5 -0.54687 47.63284000000007 3.0882599999999996 5.51717 0 0 0
1375 444 5 -0.54691 44.468 3.088249999999999 5.51717 0 0 0
1377 444 5 -0.54686 48.77216000000003 6.88884 2.93309 0 0 0
1378 444 5 -0.54688 47.63285000359518 6.23106 1.07258 0 0 0
1299 444 2 0.11531 50.83892000000002 5.03149 6.79346 0 0 0
1347 444 3 -0.09139 50.77093000000001 3.9940399999999787 7.11862 0 0 0
1962 462 7 -0.35 57.96175751315833 5.549499901064587 4.034283562677683 -1 1 -1
1967 464 7 -0.35 53.740171904304404 4.477721742274692 2.179636929546778 -1 0 2
1966 464 6 0.7 53.739088977283586 4.306443267207717 1.0310317047378281 -1 0 2
1968 464 7 -0.35 52.7401383470468 4.14821809525361 0.4633273186502682 -1 0 2
1960 462 6 0.7 58.75020833414177 4.997930122397626 3.385768248138421 -1 1 -1
1302 444 2 0.11527 59.68207 5.0315 6.79346 0 0 0
1350 444 3 -0.09129 59.75006 3.994049999999999 7.11861 0 0 0
1961 462 7 -0.35 58.155638079432634 4.762376404516404 2.4178333337164997 -1 1 -1
53 444 3 -0.03021 5.593099999955784 7.405709999327911 0.80675 0 0 0
23 444 2 0.11527 11.35669 9.607389999999999 6.79344 0 0 0
31 444 2 0.11531 13.998589999999998 8.082099999999999 2.47925 0 0 0
40 444 3 0.60537 9.21005 8.273699999999998 5.85039 0 0 0
52 444 3 -0.03019 9.210070000000002 9.493959999999998 6.71325 0 0 0
56 444 3 -0.03018 12.827080000000002 7.405729999999999 0.80674 0 0 0
71 444 3 -0.0912 10.424229999999998 10.067219999999999 7.11859 0 0 0
79 444 3 -0.09137000000000001 13.930589999999999 8.042839999999998 1.39273 0 0 0
97 444 5 -0.54686 10.349410000000002 7.802429999999999 5.51715 0 0 0
98 444 5 -0.5468499999999999 8.07076 7.80242 5.51715 0 0 0
9 444 2 0.11527 18.420150000000014 13.685479998655822 1.02615 0 0 0
14 444 2 0.11525 15.77827 9.1096 1.02615 0 0 0
20 444 2 0.11529 21.06206 9.10958 1.02616 0 0 0
62 444 3 -0.09125999999999999 14.91381 8.6105 0.58996 0 0 0
24 444 2 0.11527 25.48362 9.60738 6.79346 0 0 0
25 444 2 0.11527 22.841740000000044 8.0821 2.47926 0 0 0
68 444 3 -0.09125 21.92651999999999 8.61048999999998 0.58997 0 0 0
72 444 3 -0.09121 26.41608000000006 10.06721 7.11861 0 0 0
73 444 3 -0.09131 22.909739999999996 8.04284 1.39275 0 0 0
676 444 3 0.60537 27.630220000000005 8.273699999999998 5.85039 0 0 0
688 444 3 -0.03019 27.63024 9.493959999999998 6.71325 0 0 0
689 444 3 -0.03021 24.01326999999997 7.405709999327911 0.80675 0 0 0
707 444 3 -0.0912 28.844390000000004 10.067219999999999 7.11859 0 0 0
733 444 5 -0.54686 28.76958 7.802429999999999 5.51715 0 0 0
734 444 5 -0.5468499999999999 26.490929999999995 7.80242 5.51715 0 0 0
650 444 2 0.11525 34.19843 9.1096 1.02615 0 0 0
659 444 2 0.11527 29.776859999999996 9.607389999999999 6.79344 0 0 0
667 444 2 0.11531 32.418760000000006 8.082099999999999 2.47925 0 0 0
692 444 3 -0.03018 31.247249999999998 7.405729999999999 0.80674 0 0 0
698 444 3 -0.09125999999999999 33.33398 8.6105 0.58996 0 0 0
715 444 3 -0.09137000000000001 32.350760000000015 8.042839999999998 1.39273 0 0 0
645 444 2 0.11527 36.84032000009346 13.685479998655822 1.02615 0 0 0
656 444 2 0.11529 39.48223000000003 9.10958 1.02616 0 0 0
661 444 2 0.11527 41.2619 8.0821 2.47926 0 0 0
704 444 3 -0.09125 40.34669000000002 8.61048999999998 0.58997 0 0 0
709 444 3 -0.09131 41.3299 8.04284 1.39275 0 0 0
1325 444 3 -0.03021 42.43344000000004 7.405709999327911 0.80675 0 0 0
660 444 2 0.11527 43.90379 9.60738 6.79346 0 0 0
708 444 3 -0.09121 44.83624 10.06721 7.11861 0 0 0
1295 444 2 0.11527 48.19702000000002 9.607389999999999 6.79344 0 0 0
1312 444 3 0.60537 46.05037999999999 8.273699999999998 5.85039 0 0 0
1324 444 3 -0.03019 46.05040000000001 9.493959999999998 6.71325 0 0 0
1328 444 3 -0.03018 49.66741 7.405729999999999 0.80674 0 0 0
1343 444 3 -0.0912 47.26456 10.067219999999999 7.11859 0 0 0
1369 444 5 -0.54686 47.18974 7.802429999999999 5.51715 0 0 0
1370 444 5 -0.5468499999999999 44.91109999999998 7.80242 5.51715 0 0 0
1281 444 2 0.11527 55.26048000076015 13.685479998655822 1.02615 0 0 0
1286 444 2 0.11525 52.618600000000036 9.1096 1.02615 0 0 0
1303 444 2 0.11531 50.83892999999999 8.082099999999999 2.47925 0 0 0
1334 444 3 -0.09125999999999999 51.75414000000002 8.6105 0.58996 0 0 0
1351 444 3 -0.09137000000000001 50.77093000000001 8.042839999999998 1.39273 0 0 0
1292 444 2 0.11529 57.90239000000001 9.10958 1.02616 0 0 0
1296 444 2 0.11527 62.32395 9.60738 6.79346 0 0 0
1297 444 2 0.11527 59.68207000000001 8.0821 2.47926 0 0 0
1340 444 3 -0.09125 58.766860000000015 8.61048999999998 0.58997 0 0 0
1344 444 3 -0.09121 63.25641 10.06721 7.11861 0 0 0
1345 444 3 -0.09131 59.75007 8.04284 1.39275 0 0 0
22 444 2 0.11529 18.420140000000007 15.74048 2.47925 0 0 0
28 444 2 0.11528 21.062039999999996 17.26578 6.79346 0 0 0
29 444 2 0.11528 15.77825 17.265779999999992 6.79345 0 0 0
57 444 3 -0.09130000000000001 18.42014 14.68368 0.58996 0 0 0
70 444 3 -0.09125999999999999 18.420150000000007 15.818989998655823 1.39274 0 0 0
77 444 3 -0.09129 14.913789999999999 17.843399999999924 7.11861 0 0 0
217 444 1 0.96279 18.42015000000001 21.26976999999999 1.79652 0 0 0
218 444 1 0.96274 18.42014 19.41859 4.41448 0 0 0
251 444 3 0.60541 18.420150000000007 18.313499999999934 1.66958 0 0 0
254 444 3 0.60537 20.98034 19.79162 5.8504 0 0 0
255 444 3 0.60538 15.859949999999998 19.79164 5.8504 0 0 0
263 444 3 -0.03017 18.42015000000001 17.09324 0.80673 0 0 0
267 444 3 -0.03013 14.80316 19.18152 6.71326 0 0 0
294 444 4 -1.02787 18.42018 21.26977 3.75999 0 0 0
307 444 5 -0.54686 18.42016 19.44255 1.07257 0 0 0
308 444 5 -0.54688 18.42016 18.12698 2.93308 0 0 0
313 444 5 -0.5468499999999999 21.141900000000014 21.013959999999997 5.51717 0 0 0
314 444 5 -0.54687 20.00258000000001 19.040599999999998 5.51717 0 0 0
315 444 5 -0.54691 16.837740000000007 19.04059 5.51717 0 0 0
316 444 5 -0.5468499999999999 15.69843 21.013959999999997 5.51716 0 0 0
76 444 3 -0.09132999999999999 21.92651 17.84339 7.11862 0 0 0
239 444 2 0.11531 23.20865 20.98383 6.79346 0 0 0
266 444 3 -0.03011 22.03713 19.18152 6.71326 0 0 0
287 444 3 -0.09139 23.14067 19.946379999999994 7.11862 0 0 0
242 444 2 0.11527 32.05180000000002 20.98384 6.79346 0 0 0
290 444 3 -0.09129 32.1198 19.94638999820241 7.11861 0 0 0
665 444 2 0.11528 34.19841 17.265779999999992 6.79345 0 0 0
713 444 3 -0.09129 33.333959999999976 17.843399999999924 7.11861 0 0 0
891 444 3 0.60538 34.280120000000004 19.79164 5.8504 0 0 0
903 444 3 -0.03013 33.223330000000004 19.18152 6.71326 0 0 0
951 444 5 -0.54691 35.2579 19.04059 5.51717 0 0 0
952 444 5 -0.5468499999999999 34.1186 21.013959999999997 5.51716 0 0 0
658 444 2 0.11529 36.84031 15.74048 2.47925 0 0 0
664 444 2 0.11528 39.48221000000001 17.26578 6.79346 0 0 0
693 444 3 -0.09130000000000001 36.8403 14.68368 0.58996 0 0 0
706 444 3 -0.09125999999999999 36.84031000000004 15.818989998655823 1.39274 0 0 0
712 444 3 -0.09132999999999999 40.346669999999996 17.84339 7.11862 0 0 0
853 444 1 0.96279 36.84032 21.26976999999999 1.79652 0 0 0
854 444 1 0.96274 36.840300000000006 19.41859 4.41448 0 0 0
875 444 2 0.11531 41.62882 20.98383 6.79346 0 0 0
887 444 3 0.60541 36.840320000000006 18.313499999999934 1.66958 0 0 0
890 444 3 0.60537 39.400510000000004 19.79162 5.8504 0 0 0
899 444 3 -0.03017 36.84031 17.09324 0.80673 0 0 0
902 444 3 -0.03011 40.457300000000004 19.18152 6.71326 0 0 0
923 444 3 -0.09139 41.56083 19.946379999999994 7.11862 0 0 0
930 444 4 -1.02787 36.84035 21.26977 3.75999 0 0 0
943 444 5 -0.54686 36.84033 19.44255 1.07257 0 0 0
944 444 5 -0.54688 36.84032 18.12698 2.93308 0 0 0
949 444 5 -0.5468499999999999 39.56206000000001 21.013959999999997 5.51717 0 0 0
950 444 5 -0.54687 38.42275 19.040599999999998 5.51717 0 0 0
878 444 2 0.11527 50.47196999999999 20.98384 6.79346 0 0 0
926 444 3 -0.09129 50.539959999760995 19.94638999820241 7.11861 0 0 0
1294 444 2 0.11529 55.26047 15.74048 2.47925 0 0 0
1301 444 2 0.11528 52.618579999999994 17.265779999999992 6.79345 0 0 0
1329 444 3 -0.09130000000000001 55.26047 14.68368 0.58996 0 0 0
1342 444 3 -0.09125999999999999 55.26048000209311 15.818989998655823 1.39274 0 0 0
1349 444 3 -0.09129 51.754129999999975 17.843399999999924 7.11861 0 0 0
1489 444 1 0.96279 55.26048000000001 21.26976999999999 1.79652 0 0 0
1490 444 1 0.96274 55.260470000000005 19.41859 4.41448 0 0 0
1523 444 3 0.60541 55.260490000000075 18.313499999999934 1.66958 0 0 0
1526 444 3 0.60537 57.82068 19.79162 5.8504 0 0 0
1527 444 3 0.60538 52.70029 19.79164 5.8504 0 0 0
1535 444 3 -0.03017 55.26048000000001 17.09324 0.80673 0 0 0
1539 444 3 -0.03013 51.64349 19.18152 6.71326 0 0 0
1566 444 4 -1.02787 55.260510006208484 21.26977 3.75999 0 0 0
1579 444 5 -0.54686 55.260490000000026 19.44255 1.07257 0 0 0
1580 444 5 -0.54688 55.26049000359518 18.12698 2.93308 0 0 0
1586 444 5 -0.54687 56.842910000000046 19.040599999999998 5.51717 0 0 0
1587 444 5 -0.54691 53.67807000359518 19.04059 5.51717 0 0 0
1588 444 5 -0.5468499999999999 52.538759999999996 21.013959999999997 5.51716 0 0 0
1300 444 2 0.11528 57.90238000000001 17.26578 6.79346 0 0 0
1348 444 3 -0.09132999999999999 58.76684000000001 17.84339 7.11862 0 0 0
1511 444 2 0.11531 60.048989999999996 20.98383 6.79346 0 0 0
1538 444 3 -0.03011 58.87746000000001 19.18152 6.71326 0 0 0
1559 444 3 -0.09139 59.98100000000003 19.946379999999994 7.11862 0 0 0
1585 444 5 -0.5468499999999999 57.98223000000002 21.013959999999997 5.51717 0 0 0
1514 444 2 0.11527 68.89213 20.98384 6.79346 0 0 0
1562 444 3 -0.09129 68.96012999999998 19.94638999820241 7.11861 0 0 0
219 444 1 0.96273 20.02334 22.195369999999993 4.41449 0 0 0
220 444 1 0.9627599999999999 16.817 22.19534 4.41447 0 0 0
235 444 2 0.11527 20.566759999999995 25.559729999999995 6.79344 0 0 0
252 444 3 0.60537 18.42012 24.22604 5.85039 0 0 0
253 444 3 0.60534 15.85996000002206 22.74790999820241 1.66959 0 0 0
256 444 3 0.60545 20.98035 22.747909999999997 1.66957 0 0 0
264 444 3 -0.03019 18.420140000000004 25.4463 6.71325 0 0 0
265 444 3 -0.03021 14.803170000000003 23.35805 0.80675 0 0 0
283 444 3 -0.0912 19.634290000000004 26.01956 7.11859 0 0 0
309 444 5 -0.54686 19.55948 23.75477 5.51715 0 0 0
310 444 5 -0.5468499999999999 17.280830000000005 23.75476 5.51715 0 0 0
311 444 5 -0.54682 15.698419999999999 22.841169999999998 2.9331 0 0 0
312 444 5 -0.54688 16.83774 22.1834 1.07258 0 0 0
317 444 5 -0.54686 21.1419 22.841179999999998 2.93309 0 0 0
318 444 5 -0.54688 20.00258 22.1834 1.07258 0 0 0
226 444 2 0.11525 24.98833 25.061939999999996 1.02615 0 0 0
243 444 2 0.11531 23.20866 24.03444 2.47925 0 0 0
268 444 3 -0.03018 22.03715 23.35807 0.80674 0 0 0
274 444 3 -0.09125999999999999 24.123880000000018 24.56284 0.58996 0 0 0
291 444 3 -0.09137000000000001 23.140660000000004 23.99518 1.39273 0 0 0
232 444 2 0.11529 30.27213 25.061919999999997 1.02616 0 0 0
236 444 2 0.11527 34.69369 25.559719999999995 6.79346 0 0 0
237 444 2 0.11527 32.05180000000003 24.03444 2.47926 0 0 0
280 444 3 -0.09125 31.13659 24.56283 0.58997 0 0 0
284 444 3 -0.09121 35.62613999999999 26.01954999999954 7.11861 0 0 0
285 444 3 -0.09131 32.11980000359518 23.99518 1.39275 0 0 0
856 444 1 0.9627599999999999 35.23717 22.19534 4.41447 0 0 0
889 444 3 0.60534 34.280120000425455 22.74790999820241 1.66959 0 0 0
901 444 3 -0.03021 33.22334 23.35805 0.80675 0 0 0
946 444 5 -0.5468499999999999 35.701 23.75476 5.51715 0 0 0
947 444 5 -0.54682 34.118589999999976 22.841169999999998 2.9331 0 0 0
948 444 5 -0.54688 35.25790000000001 22.1834 1.07258 0 0 0
855 444 1 0.96273 38.443509999999996 22.195369999999993 4.41449 0 0 0
862 444 2 0.11525 43.408500000000004 25.061939999999996 1.02615 0 0 0
871 444 2 0.11527 38.98692000000001 25.559729999999995 6.79344 0 0 0
879 444 2 0.11531 41.62883 24.03444 2.47925 0 0 0
888 444 3 0.60537 36.84028 24.22604 5.85039 0 0 0
892 444 3 0.60545 39.40052000000001 22.747909999999997 1.66957 0 0 0
900 444 3 -0.03019 36.84030000000003 25.4463 6.71325 0 0 0
904 444 3 -0.03018 40.45731 23.35807 0.80674 0 0 0
910 444 3 -0.09125999999999999 42.544039999999995 24.56284 0.58996 0 0 0
919 444 3 -0.0912 38.05446 26.01956 7.11859 0 0 0
927 444 3 -0.09137000000000001 41.56083000000002 23.99518 1.39273 0 0 0
945 444 5 -0.54686 37.97963999999998 23.75477 5.51715 0 0 0
953 444 5 -0.54686 39.56206000000009 22.841179999999998 2.93309 0 0 0
954 444 5 -0.54688 38.42275000000001 22.1834 1.07258 0 0 0
868 444 2 0.11529 48.69229000359518 25.061919999999997 1.02616 0 0 0
873 444 2 0.11527 50.471970000000006 24.03444 2.47926 0 0 0
916 444 3 -0.09125 49.556760000000004 24.56283 0.58997 0 0 0
921 444 3 -0.09131 50.539970000000004 23.99518 1.39275 0 0 0
872 444 2 0.11527 53.11384999999999 25.559719999999995 6.79346 0 0 0
920 444 3 -0.09121 54.04630999999988 26.01954999999954 7.11861 0 0 0
1491 444 1 0.96273 56.86367999999999 22.195369999999993 4.41449 0 0 0
1492 444 1 0.9627599999999999 53.65734 22.19534 4.41447 0 0 0
1507 444 2 0.11527 57.40709 25.559729999999995 6.79344 0 0 0
1524 444 3 0.60537 55.26045000000001 24.22604 5.85039 0 0 0
1525 444 3 0.60534 52.700290001646415 22.74790999820241 1.66959 0 0 0
1528 444 3 0.60545 57.82068 22.747909999999997 1.66957 0 0 0
1536 444 3 -0.03019 55.260470000000005 25.4463 6.71325 0 0 0
1537 444 3 -0.03021 51.6435 23.35805 0.80675 0 0 0
1555 444 3 -0.0912 56.47463000000001 26.01956 7.11859 0 0 0
1581 444 5 -0.54686 56.39981 23.75477 5.51715 0 0 0
1582 444 5 -0.5468499999999999 54.121159999999996 23.75476 5.51715 0 0 0
1583 444 5 -0.54682 52.53876 22.841169999999998 2.9331 0 0 0
1584 444 5 -0.54688 53.67807000427058 22.1834 1.07258 0 0 0
1590 444 5 -0.54688 56.842910000000046 22.1834 1.07258 0 0 0
1911 445 7 -0.35 53.431508218663076 27.86061600789086 2.5401768984537485 0 1 1
1910 445 7 -0.35 52.49609122877579 27.39503996821415 4.5169996865535245 0 1 1
1909 445 6 0.7 52.81690337273058 27.899602335944117 3.522975029343615 0 1 1
1498 444 2 0.11525 61.82867000000005 25.061939999999996 1.02615 0 0 0
1515 444 2 0.11531 60.048989999999996 24.03444 2.47925 0 0 0
1540 444 3 -0.03018 58.87748 23.35807 0.80674 0 0 0
1546 444 3 -0.09125999999999999 60.964209999999994 24.56284 0.58996 0 0 0
1563 444 3 -0.09137000000000001 59.98099000000003 23.99518 1.39273 0 0 0
1589 444 5 -0.54686 57.98223 22.841179999999998 2.93309 0 0 0
1504 444 2 0.11529 67.11246 25.061919999999997 1.02616 0 0 0
1508 444 2 0.11527 71.53402000000001 25.559719999999995 6.79346 0 0 0
1509 444 2 0.11527 68.89214 24.03444 2.47926 0 0 0
1552 444 3 -0.09125 67.97692000000016 24.56283 0.58997 0 0 0
1557 444 3 -0.09131 68.96014000000002 23.99518 1.39275 0 0 0
1556 444 3 -0.09121 72.46647999999996 26.01954999999954 7.11861 0 0 0
221 444 2 0.11527 27.63022 29.637819999999994 1.02615 0 0 0
234 444 2 0.11529 27.63021 31.69282 2.47925 0 0 0
241 444 2 0.11528 24.988320000000012 33.21812 6.79345 0 0 0
269 444 3 -0.09130000000000001 27.63021 30.636019999999995 0.58996 0 0 0
282 444 3 -0.09125999999999999 27.630210002284127 31.771329999999764 1.39274 0 0 0
289 444 3 -0.09129 24.12386 33.795739999999995 7.11861 0 0 0
430 444 1 0.96274 27.630199999899535 35.370929996236605 4.41448 0 0 0
463 444 3 0.60541 27.63022 34.26583999999999 1.66958 0 0 0
467 444 3 0.60538 25.07002 35.74397 5.8504 0 0 0
475 444 3 -0.03017 27.63021 33.045569999999984 0.80673 0 0 0
479 444 3 -0.03013 24.01322999999658 35.133859996404816 6.71326 0 0 0
519 444 5 -0.54686 27.63023000000022 35.394889996404814 1.07257 0 0 0
520 444 5 -0.54688 27.63023 34.07932 2.93308 0 0 0
527 444 5 -0.54691 26.047800002339585 34.99292999999999 5.51717 0 0 0
240 444 2 0.11528 30.27211 33.21812 6.79346 0 0 0
288 444 3 -0.09132999999999999 31.136570000000003 33.79573 7.11862 0 0 0
466 444 3 0.60537 30.190410000000004 35.74396 5.8504 0 0 0
478 444 3 -0.03011 31.247199999999903 35.133859996404816 6.71326 0 0 0
499 444 3 -0.09139 32.35073 35.89872 7.11862 0 0 0
526 444 5 -0.54687 29.212650000000068 34.99294 5.51717 0 0 0
502 444 3 -0.09129 41.32986 35.89873 7.11861 0 0 0
877 444 2 0.11528 43.40848 33.21812 6.79345 0 0 0
925 444 3 -0.09129 42.54403 33.795739999999995 7.11861 0 0 0
1115 444 3 -0.03013 42.43338999999999 35.133859996404816 6.71326 0 0 0
857 444 2 0.11527 46.05038 29.637819999999994 1.02615 0 0 0
870 444 2 0.11529 46.05037000000001 31.69282 2.47925 0 0 0
876 444 2 0.11528 48.692280000000004 33.21812 6.79346 0 0 0
905 444 3 -0.09130000000000001 46.05037 30.636019999999995 0.58996 0 0 0
918 444 3 -0.09125999999999999 46.05037999999998 31.771329999999764 1.39274 0 0 0
924 444 3 -0.09132999999999999 49.55674 33.79573 7.11862 0 0 0
1066 444 1 0.96274 46.05037000000002 35.370929996236605 4.41448 0 0 0
1099 444 3 0.60541 46.05039 34.26583999999999 1.66958 0 0 0
1102 444 3 0.60537 48.61058 35.74396 5.8504 0 0 0
1103 444 3 0.60538 43.49019 35.74397 5.8504 0 0 0
1111 444 3 -0.03017 46.05037999999998 33.045569999999984 0.80673 0 0 0
1114 444 3 -0.03011 49.667359999999945 35.133859996404816 6.71326 0 0 0
1155 444 5 -0.54686 46.05039 35.394889996404814 1.07257 0 0 0
1156 444 5 -0.54688 46.05039 34.07932 2.93308 0 0 0
1162 444 5 -0.54687 47.63281000000001 34.99294 5.51717 0 0 0
1163 444 5 -0.54691 44.46797 34.99292999999999 5.51717 0 0 0
1958 461 7 -0.35 53.30431882217318 30.9188590516869 6.138910801563461 -1 1 1
1959 461 7 -0.35 51.6441919629482 30.86044976431882 6.023423332366568 -1 1 1
1957 461 6 0.7 52.411658540549666 31.302668322257293 6.773556391994556 -1 1 1
1135 444 3 -0.09139 50.7709 35.89872 7.11862 0 0 0
1138 444 3 -0.09129 59.75003 35.89873 7.11861 0 0 0
1493 444 2 0.11527 64.47054999999999 29.637819999999994 1.02615 0 0 0
1506 444 2 0.11529 64.47054000000009 31.69282 2.47925 0 0 0
1513 444 2 0.11528 61.82865 33.21812 6.79345 0 0 0
1541 444 3 -0.09130000000000001 64.47054000000001 30.636019999999995 0.58996 0 0 0
1554 444 3 -0.09125999999999999 64.47054000000004 31.771329999999764 1.39274 0 0 0
1561 444 3 -0.09129 60.96419 33.795739999999995 7.11861 0 0 0
1702 444 1 0.96274 64.47054000000004 35.370929996236605 4.41448 0 0 0
1735 444 3 0.60541 64.47055 34.26583999999999 1.66958 0 0 0
1739 444 3 0.60538 61.91035000000001 35.74397 5.8504 0 0 0
1747 444 3 -0.03017 64.47055 33.045569999999984 0.80673 0 0 0
1751 444 3 -0.03013 60.85355999999997 35.133859996404816 6.71326 0 0 0
1791 444 5 -0.54686 64.47055999999996 35.394889996404814 1.07257 0 0 0
1792 444 5 -0.54688 64.47056 34.07932 2.93308 0 0 0
1799 444 5 -0.54691 62.88814000000003 34.99292999999999 5.51717 0 0 0
1512 444 2 0.11528 67.11244 33.21812 6.79346 0 0 0
1560 444 3 -0.09132999999999999 67.97691000000003 33.79573 7.11862 0 0 0
1738 444 3 0.60537 67.03074000000001 35.74396 5.8504 0 0 0
1750 444 3 -0.03011 68.08753000000003 35.133859996404816 6.71326 0 0 0
1771 444 3 -0.09139 69.19107000000005 35.89872 7.11862 0 0 0
1798 444 5 -0.54687 66.05298 34.99294 5.51717 0 0 0
1774 444 3 -0.09129 78.1702 35.89873 7.11861 0 0 0
429 444 1 0.96279 27.630220003351422 37.22211 1.79652 0 0 0
432 444 1 0.9627599999999999 26.02707 38.14768 4.41447 0 0 0
464 444 3 0.60537 27.630190000000002 40.17837999999999 5.85039 0 0 0
465 444 3 0.60534 25.07002 38.70025 1.66959 0 0 0
476 444 3 -0.03019 27.630210000000012 41.39864 6.71325 0 0 0
477 444 3 -0.03021 24.01324000179759 39.31039 0.80675 0 0 0
495 444 3 -0.0912 28.844360000000023 41.97189999999999 7.11859 0 0 0
506 444 4 -1.02787 27.630250000000004 37.22211 3.75999 0 0 0
521 444 5 -0.54686 28.769550000000006 39.707109999999986 5.51715 0 0 0
522 444 5 -0.5468499999999999 26.490900001968033 39.70709999999999 5.51715 0 0 0
523 444 5 -0.54682 24.908490002307456 38.79351 2.9331 0 0 0
524 444 5 -0.54688 26.0478 38.13574 1.07258 0 0 0
528 444 5 -0.5468499999999999 24.908499999999997 36.9663 5.51716 0 0 0
431 444 1 0.96273 29.233410000000003 38.14771 4.41449 0 0 0
438 444 2 0.11525 34.1984 41.01428 1.02615 0 0 0
447 444 2 0.11527 29.77681999999999 41.512069999999994 6.79344 0 0 0
451 444 2 0.11531 32.41872 36.93617 6.79346 0 0 0
455 444 2 0.11531 32.41873 39.98678 2.47925 0 0 0
468 444 3 0.60545 30.190419999999996 38.70024999999997 1.66957 0 0 0
480 444 3 -0.03018 31.24721000000001 39.3104 0.80674 0 0 0
486 444 3 -0.09125999999999999 33.33394 40.51518 0.58996 0 0 0
503 444 3 -0.09137000000000001 32.35073 39.94752 1.39273 0 0 0
525 444 5 -0.5468499999999999 30.35197 36.96629999999999 5.51717 0 0 0
529 444 5 -0.54686 30.35195999971265 38.79351999589186 2.93309 0 0 0
530 444 5 -0.54688 29.21265 38.13574 1.07258 0 0 0
444 444 2 0.11529 39.48219000000017 41.01426 1.02616 0 0 0
449 444 2 0.11527 41.26187000000003 39.98676999999994 2.47926 0 0 0
454 444 2 0.11527 41.26187000000001 36.93618 6.79346 0 0 0
492 444 3 -0.09125 40.34665999999999 40.51516999999999 0.58997 0 0 0
497 444 3 -0.09131 41.329870000000014 39.94750999999993 1.39275 0 0 0
1113 444 3 -0.03021 42.43341 39.31039 0.80675 0 0 0
1159 444 5 -0.54682 43.328660000000006 38.79351 2.9331 0 0 0
1164 444 5 -0.5468499999999999 43.32866 36.9663 5.51716 0 0 0
448 444 2 0.11527 43.903750000000024 41.51206 6.79346 0 0 0
496 444 3 -0.09121 44.83620999999998 41.97188999999964 7.11861 0 0 0
1065 444 1 0.96279 46.05038 37.22211 1.79652 0 0 0
1067 444 1 0.96273 47.65358 38.14771 4.41449 0 0 0
1068 444 1 0.9627599999999999 44.44724000000001 38.14768 4.41447 0 0 0
1083 444 2 0.11527 48.19699 41.512069999999994 6.79344 0 0 0
1100 444 3 0.60537 46.050349999999995 40.17837999999999 5.85039 0 0 0
1101 444 3 0.60534 43.49019000000002 38.70025 1.66959 0 0 0
1104 444 3 0.60545 48.610580000000006 38.70024999999997 1.66957 0 0 0
1112 444 3 -0.03019 46.050370000000015 41.39864 6.71325 0 0 0
1116 444 3 -0.03018 49.66738000000002 39.3104 0.80674 0 0 0
1131 444 3 -0.0912 47.26453 41.97189999999999 7.11859 0 0 0
1142 444 4 -1.02787 46.05041000000003 37.22211 3.75999 0 0 0
1157 444 5 -0.54686 47.18971 39.707109999999986 5.51715 0 0 0
1158 444 5 -0.5468499999999999 44.91106 39.70709999999999 5.51715 0 0 0
1160 444 5 -0.54688 44.46797000000001 38.13574 1.07258 0 0 0
1161 444 5 -0.5468499999999999 48.77213 36.96629999999999 5.51717 0 0 0
1165 444 5 -0.54686 48.772130000070355 38.79351999589186 2.93309 0 0 0
1166 444 5 -0.54688 47.63281000000002 38.13574 1.07258 0 0 0
1074 444 2 0.11525 52.61857 41.01428 1.02615 0 0 0
1087 444 2 0.11531 50.83889 36.93617 6.79346 0 0 0
1091 444 2 0.11531 50.8389 39.98678 2.47925 0 0 0
1122 444 3 -0.09125999999999999 51.75411 40.51518 0.58996 0 0 0
1139 444 3 -0.09137000000000001 50.770890000000016 39.94752 1.39273 0 0 0
1080 444 2 0.11529 57.90236000000006 41.01426 1.02616 0 0 0
1084 444 2 0.11527 62.32392000000001 41.51206 6.79346 0 0 0
1085 444 2 0.11527 59.68204 39.98676999999994 2.47926 0 0 0
1090 444 2 0.11527 59.682030000000005 36.93618 6.79346 0 0 0
1128 444 3 -0.09125 58.76682 40.51516999999999 0.58997 0 0 0
1132 444 3 -0.09121 63.25638000000001 41.97188999999964 7.11861 0 0 0
1133 444 3 -0.09131 59.75004 39.94750999999993 1.39275 0 0 0
1701 444 1 0.96279 64.47055 37.22211 1.79652 0 0 0
1704 444 1 0.9627599999999999 62.86740000000001 38.14768 4.41447 0 0 0
1736 444 3 0.60537 64.47052 40.17837999999999 5.85039 0 0 0
1737 444 3 0.60534 61.91035000620849 38.70025 1.66959 0 0 0
1748 444 3 -0.03019 64.47054000000001 41.39864 6.71325 0 0 0
1749 444 3 -0.03021 60.853570000000005 39.31039 0.80675 0 0 0
1778 444 4 -1.02787 64.47058 37.22211 3.75999 0 0 0
1794 444 5 -0.5468499999999999 63.33123 39.70709999999999 5.51715 0 0 0
1795 444 5 -0.54682 61.74882000000001 38.79351 2.9331 0 0 0
1796 444 5 -0.54688 62.88814000620849 38.13574 1.07258 0 0 0
1800 444 5 -0.5468499999999999 61.74883 36.9663 5.51716 0 0 0
1703 444 1 0.96273 66.07374 38.14771 4.41449 0 0 0
1710 444 2 0.11525 71.03873 41.01428 1.02615 0 0 0
1719 444 2 0.11527 66.61716000000001 41.512069999999994 6.79344 0 0 0
1723 444 2 0.11531 69.25905000000004 36.93617 6.79346 0 0 0
1727 444 2 0.11531 69.25906 39.98678 2.47925 0 0 0
1740 444 3 0.60545 67.03075000000004 38.70024999999997 1.66957 0 0 0
1752 444 3 -0.03018 68.08755 39.3104 0.80674 0 0 0
1758 444 3 -0.09125999999999999 70.17428000000001 40.51518 0.58996 0 0 0
1767 444 3 -0.0912 65.68468999999999 41.97189999999999 7.11859 0 0 0
1775 444 3 -0.09137000000000001 69.19106000000005 39.94752 1.39273 0 0 0
1793 444 5 -0.54686 65.60988 39.707109999999986 5.51715 0 0 0
1797 444 5 -0.5468499999999999 67.19229999999999 36.96629999999999 5.51717 0 0 0
1801 444 5 -0.54686 67.19229999999995 38.79351999589186 2.93309 0 0 0
1802 444 5 -0.54688 66.05298000000003 38.13574 1.07258 0 0 0
1956 460 7 -0.35 67.32648962961471 43.28478955609595 0.8966024412132789 -1 0 -1
1716 444 2 0.11529 76.32253 41.01426 1.02616 0 0 0
1721 444 2 0.11527 78.10220000000001 39.98676999999994 2.47926 0 0 0
1726 444 2 0.11527 78.1022 36.93618 6.79346 0 0 0
1764 444 3 -0.09125 77.18699000000004 40.51516999999999 0.58997 0 0 0
1769 444 3 -0.09131 78.17020000000001 39.94750999999993 1.39275 0 0 0
1720 444 2 0.11527 80.74409000719037 41.51206 6.79346 0 0 0
1768 444 3 -0.09121 81.67654000000003 41.97188999999964 7.11861 0 0 0
453 444 2 0.11528 34.198380000000014 49.17045999999999 6.79345 0 0 0
501 444 3 -0.09129 33.333929999999995 49.748079999999995 7.11861 0 0 0
433 444 2 0.11527 36.84028 45.59016 1.02615 0 0 0
446 444 2 0.11529 36.84027 47.64515 2.47925 0 0 0
452 444 2 0.11528 39.48218000000001 49.17046 6.79346 0 0 0
481 444 3 -0.09130000000000001 36.84026999999999 46.58836 0.58996 0 0 0
494 444 3 -0.09125999999999999 36.84028 47.72367 1.39274 0 0 0
500 444 3 -0.09132999999999999 40.34664 49.74807 7.11862 0 0 0
1947 457 7 -0.35 47.438128976427734 44.5584412948884 4.559582192460691 1 -1 1
1945 457 6 0.7 46.33666492399953 44.89701583031646 4.690505817592201 1 -1 1
1946 457 7 -0.35 45.24609591764561 44.838105666294716 5.083727062424905 1 -1 1
1914 446 7 -0.35 45.47011132175189 48.51307503973432 5.769002101896103 0 -1 2
1912 446 6 0.7 46.059623302789745 48.20696279292025 6.7196287617172334 0 -1 2
1913 446 7 -0.35 47.174126467870366 47.8880089368965 6.752676735269868 0 -1 2
1069 444 2 0.11527 55.260450000000034 45.59016 1.02615 0 0 0
1082 444 2 0.11529 55.26044000000001 47.64515 2.47925 0 0 0
1089 444 2 0.11528 52.61855 49.17045999999999 6.79345 0 0 0
1117 444 3 -0.09130000000000001 55.26044 46.58836 0.58996 0 0 0
1130 444 3 -0.09125999999999999 55.26045 47.72367 1.39274 0 0 0
1137 444 3 -0.09129 51.75408999999999 49.748079999999995 7.11861 0 0 0
1088 444 2 0.11528 57.90234 49.17046 6.79346 0 0 0
1136 444 3 -0.09132999999999999 58.76681000000001 49.74807 7.11862 0 0 0
1725 444 2 0.11528 71.03871000000001 49.17045999999999 6.79345 0 0 0
1773 444 3 -0.09129 70.17426 49.748079999999995 7.11861 0 0 0
1705 444 2 0.11527 73.68062 45.59016 1.02615 0 0 0
1718 444 2 0.11529 73.68061000000003 47.64515 2.47925 0 0 0
1724 444 2 0.11528 76.32251000000001 49.17046 6.79346 0 0 0
1753 444 3 -0.09130000000000001 73.6806 46.58836 0.58996 0 0 0
1766 444 3 -0.09125999999999999 73.68061 47.72367 1.39274 0 0 0
1772 444 3 -0.09132999999999999 77.18697000000004 49.74807 7.11862 0 0 0
10 444 2 0.11525 18.42016 5.529289999999996 12.56074 0 0 0
16 444 2 0.11528 21.062049999999992 4.004019999999997 8.24655 0 0 0
17 444 2 0.11528 15.77827 4.0039999999999925 8.24656 0 0 0
58 444 3 -0.09125 18.42015 5.45078 13.64724 0 0 0
65 444 3 -0.09125 14.913809999999998 3.4263899999999996 7.921399999999999 0 0 0
69 444 3 -0.09132999999999999 18.420139999999996 6.586089999999999 14.45003 0 0 0
64 444 3 -0.09125999999999999 21.92653 3.4264 7.92139 0 0 0
653 444 2 0.11528 34.19843999999998 4.0039999999999925 8.24656 0 0 0
701 444 3 -0.09125 33.33397 3.4263899999999996 7.921399999999999 0 0 0
646 444 2 0.11525 36.84031999999999 5.529289999999996 12.56074 0 0 0
652 444 2 0.11528 39.48222000000001 4.004019999999997 8.24655 0 0 0
694 444 3 -0.09125 36.840320000000006 5.45078 13.64724 0 0 0
700 444 3 -0.09125999999999999 40.3467 3.4264 7.92139 0 0 0
705 444 3 -0.09132999999999999 36.84031 6.586089999999999 14.45003 0 0 0
1282 444 2 0.11525 55.26049000000002 5.529289999999996 12.56074 0 0 0
1289 444 2 0.11528 52.6186 4.0039999999999925 8.24656 0 0 0
1330 444 3 -0.09125 55.26048 5.45078 13.64724 0 0 0
1337 444 3 -0.09125 51.75414000000001 3.4263899999999996 7.921399999999999 0 0 0
1341 444 3 -0.09132999999999999 55.26048 6.586089999999999 14.45003 0 0 0
1288 444 2 0.11528 57.90239000620847 4.004019999999997 8.24655 0 0 0
1336 444 3 -0.09125999999999999 58.76686 3.4264 7.92139 0 0 0
11 444 2 0.1153 11.35669 11.66237 8.24654 0 0 0
19 444 2 0.11528 13.998589999999986 13.187689999999888 12.56076 0 0 0
59 444 3 -0.09134 10.424230000000001 11.20253 7.92138 0 0 0
67 444 3 -0.09130000000000001 13.930589999999999 13.226939999999999 13.64726 0 0 0
21 444 2 0.11528 18.420159999999996 7.584289999999934 14.01384 0 0 0
26 444 2 0.11525 15.77827 12.160189999999997 14.01385 0 0 0
32 444 2 0.11528 21.06206 12.1602 14.01384 0 0 0
74 444 3 -0.0912 14.913799999999998 12.659289999999997 14.45004 0 0 0
12 444 2 0.11533 25.48360999999999 11.662369999999996 8.24655 0 0 0
13 444 2 0.11527 22.841730000000005 13.1877 12.56074 0 0 0
34 444 3 0.60546 27.630259999832276 12.996059998655822 9.1896 0 0 0
35 444 3 0.6054 25.070050000000002 14.47422 13.37042 0 0 0
46 444 3 -0.03019 27.63022 11.77579 8.32674 0 0 0
47 444 3 -0.03019 24.01325 13.864079999999998 14.23325 0 0 0
60 444 3 -0.09141000000000001 26.416089999999556 11.202529999101204 7.92139 0 0 0
61 444 3 -0.09128 22.909739999999996 13.226959999999995 13.64726 0 0 0
80 444 3 -0.09125 21.926520000000004 12.659299999999991 14.45003 0 0 0
85 444 5 -0.54688 28.769530000000003 13.467319999999997 9.52284 0 0 0
86 444 5 -0.54696 26.490889999999993 13.467319999999997 9.52284 0 0 0
87 444 5 -0.54689 24.90851 14.380939999999995 12.1069 0 0 0
695 444 3 -0.09134 28.844400000000007 11.20253 7.92138 0 0 0
38 444 3 0.60539 30.190439999999995 14.4742 13.37042 0 0 0
50 444 3 -0.03016 31.247219999999995 13.864059999999995 14.23328 0 0 0
93 444 5 -0.54688 30.351970000000016 14.380929999999873 12.10693 0 0 0
647 444 2 0.1153 29.77685 11.66237 8.24654 0 0 0
655 444 2 0.11528 32.418749999999996 13.187689999999888 12.56076 0 0 0
662 444 2 0.11525 34.198429999999995 12.160189999999997 14.01385 0 0 0
703 444 3 -0.09130000000000001 32.35076 13.226939999999999 13.64726 0 0 0
710 444 3 -0.0912 33.33397 12.659289999999997 14.45004 0 0 0
649 444 2 0.11527 41.2619 13.1877 12.56074 0 0 0
657 444 2 0.11528 36.84031999999999 7.584289999999934 14.01384 0 0 0
668 444 2 0.11528 39.482220000000005 12.1602 14.01384 0 0 0
683 444 3 -0.03019 42.43342 13.864079999999998 14.23325 0 0 0
697 444 3 -0.09128 41.32991 13.226959999999995 13.64726 0 0 0
716 444 3 -0.09125 40.34669000000001 12.659299999999991 14.45003 0 0 0
723 444 5 -0.54689 43.32867000000002 14.380939999999995 12.1069 0 0 0
648 444 2 0.11533 43.90378000000002 11.662369999999996 8.24655 0 0 0
670 444 3 0.60546 46.050429999335684 12.996059998655822 9.1896 0 0 0
671 444 3 0.6054 43.49021 14.47422 13.37042 0 0 0
674 444 3 0.60539 48.610609999999994 14.4742 13.37042 0 0 0
682 444 3 -0.03019 46.05039 11.77579 8.32674 0 0 0
686 444 3 -0.03016 49.66738999999998 13.864059999999995 14.23328 0 0 0
696 444 3 -0.09141000000000001 44.83625000000003 11.202529999101204 7.92139 0 0 0
721 444 5 -0.54688 47.189699999999995 13.467319999999997 9.52284 0 0 0
722 444 5 -0.54696 44.91106 13.467319999999997 9.52284 0 0 0
729 444 5 -0.54688 48.772129999999976 14.380929999999873 12.10693 0 0 0
1283 444 2 0.1153 48.19702 11.66237 8.24654 0 0 0
1331 444 3 -0.09134 47.264569999999985 11.20253 7.92138 0 0 0
1291 444 2 0.11528 50.838920000000044 13.187689999999888 12.56076 0 0 0
1293 444 2 0.11528 55.260490000000075 7.584289999999934 14.01384 0 0 0
1298 444 2 0.11525 52.61860000000001 12.160189999999997 14.01385 0 0 0
1339 444 3 -0.09130000000000001 50.77092 13.226939999999999 13.64726 0 0 0
1346 444 3 -0.0912 51.75414000000013 12.659289999999997 14.45004 0 0 0
1284 444 2 0.11533 62.32394000620848 11.662369999999996 8.24655 0 0 0
1285 444 2 0.11527 59.68206 13.1877 12.56074 0 0 0
1304 444 2 0.11528 57.90239 12.1602 14.01384 0 0 0
1306 444 3 0.60546 64.47060000000013 12.996059998655822 9.1896 0 0 0
1307 444 3 0.6054 61.91038000000001 14.47422 13.37042 0 0 0
1318 444 3 -0.03019 64.47055 11.77579 8.32674 0 0 0
1319 444 3 -0.03019 60.853590000000004 13.864079999999998 14.23325 0 0 0
1332 444 3 -0.09141000000000001 63.2564200000395 11.202529999101204 7.92139 0 0 0
1333 444 3 -0.09128 59.75007 13.226959999999995 13.64726 0 0 0
1352 444 3 -0.09125 58.76686000000001 12.659299999999991 14.45003 0 0 0
1358 444 5 -0.54696 63.33123 13.467319999999997 9.52284 0 0 0
1359 444 5 -0.54689 61.748840006208475 14.380939999999995 12.1069 0 0 0
1310 444 3 0.60539 67.03078 14.4742 13.37042 0 0 0
1322 444 3 -0.03016 68.08754999999998 13.864059999999995 14.23328 0 0 0
1357 444 5 -0.54688 65.60987000000004 13.467319999999997 9.52284 0 0 0
1365 444 5 -0.54688 67.19229999999997 14.380929999999873 12.10693 0 0 0
15 444 2 0.11529 13.99858 16.23829 8.24655 0 0 0
63 444 3 -0.09128 13.93058 17.275749999999995 7.92139 0 0 0
1 444 1 0.96283 27.630250000000004 15.95234 13.24348 0 0 0
2 444 1 0.96284 27.630239999999993 17.803519999999992 10.62553 0 0 0
4 444 1 0.96279 26.027059999999977 15.026729998655824 10.62551 0 0 0
18 444 2 0.11527 22.84172 16.23828 8.24656 0 0 0
33 444 3 0.60538 27.630220000000005 18.908609999999996 13.37041 0 0 0
37 444 3 0.60531 25.07004 17.4305 9.18961 0 0 0
45 444 3 -0.03012 27.630210000000005 20.12887 14.23327 0 0 0
49 444 3 -0.03015 24.013240000000003 18.04059999999999 8.32676 0 0 0
66 444 3 -0.09123000000000001 22.90972 17.275739999999995 7.92141 0 0 0
81 444 4 -1.02796 27.630229999999997 15.95233 11.28001 0 0 0
83 444 5 -0.54688 27.63022 17.779559999999996 13.96743 0 0 0
84 444 5 -0.54688 27.63022 19.09512999999999 12.10693 0 0 0
88 444 5 -0.54692 26.047819999999998 15.03872999999999 13.96742 0 0 0
91 444 5 -0.54687 26.047800000000002 18.181519999999992 9.52285 0 0 0
92 444 5 -0.5468499999999999 24.90851 16.20814 9.52284 0 0 0
222 444 2 0.11525 27.63022 21.481629999999996 12.56074 0 0 0
229 444 2 0.11528 24.988340000000004 19.95634 8.24656 0 0 0
270 444 3 -0.09125 27.63022 21.403119999999998 13.64724 0 0 0
277 444 3 -0.09125 24.12387 19.378729999999997 7.921399999999999 0 0 0
3 444 1 0.9628 29.23341 15.026749999999996 10.62553 0 0 0
36 444 3 0.6054 30.19043 17.43048 9.1896 0 0 0
48 444 3 -0.03015 31.247220000000006 18.040609999999997 8.32675 0 0 0
89 444 5 -0.5469000000000001 30.351959999999995 16.20816 9.52284 0 0 0
90 444 5 -0.54689 29.212639999999997 18.181519999999992 9.52284 0 0 0
94 444 5 -0.5469000000000001 29.212649999999996 15.038729999999994 13.96744 0 0 0
228 444 2 0.11528 30.272119999999983 19.956349999999784 8.24655 0 0 0
276 444 3 -0.09125999999999999 31.1366 19.378739999999997 7.92139 0 0 0
651 444 2 0.11529 32.41874 16.23829 8.24655 0 0 0
699 444 3 -0.09128 32.350750000000005 17.275749999999995 7.92139 0 0 0
654 444 2 0.11527 41.26187999999999 16.23828 8.24656 0 0 0
685 444 3 -0.03015 42.433410000000016 18.04059999999999 8.32676 0 0 0
702 444 3 -0.09123000000000001 41.329890000000006 17.275739999999995 7.92141 0 0 0
728 444 5 -0.5468499999999999 43.32867 16.20814 9.52284 0 0 0
865 444 2 0.11528 43.40849999999999 19.95634 8.24656 0 0 0
913 444 3 -0.09125 42.544039999999995 19.378729999999997 7.921399999999999 0 0 0
637 444 1 0.96283 46.05041 15.95234 13.24348 0 0 0
638 444 1 0.96284 46.05041 17.803519999999992 10.62553 0 0 0
639 444 1 0.9628 47.653569999999974 15.026749999999996 10.62553 0 0 0
640 444 1 0.96279 44.447230001703474 15.026729998655824 10.62551 0 0 0
669 444 3 0.60538 46.05037999999999 18.908609999999996 13.37041 0 0 0
672 444 3 0.6054 48.6106 17.43048 9.1896 0 0 0
673 444 3 0.60531 43.49020000000001 17.4305 9.18961 0 0 0
681 444 3 -0.03012 46.05037000000001 20.12887 14.23327 0 0 0
684 444 3 -0.03015 49.66738000000002 18.040609999999997 8.32675 0 0 0
717 444 4 -1.02796 46.0504 15.95233 11.28001 0 0 0
719 444 5 -0.54688 46.05037999999999 17.779559999999996 13.96743 0 0 0
720 444 5 -0.54688 46.05037999999999 19.09512999999999 12.10693 0 0 0
724 444 5 -0.54692 44.46798 15.03872999999999 13.96742 0 0 0
725 444 5 -0.5469000000000001 48.77213 16.20816 9.52284 0 0 0
726 444 5 -0.54689 47.632810000000006 18.181519999999992 9.52284 0 0 0
727 444 5 -0.54687 44.467970000000015 18.181519999999992 9.52285 0 0 0
730 444 5 -0.5469000000000001 47.63281 15.038729999999994 13.96744 0 0 0
858 444 2 0.11525 46.05038999999998 21.481629999999996 12.56074 0 0 0
864 444 2 0.11528 48.69229000000025 19.956349999999784 8.24655 0 0 0
906 444 3 -0.09125 46.05037999999999 21.403119999999998 13.64724 0 0 0
912 444 3 -0.09125999999999999 49.55677000000001 19.378739999999997 7.92139 0 0 0
1287 444 2 0.11529 50.83891 16.23829 8.24655 0 0 0
1335 444 3 -0.09128 50.77091000000001 17.275749999999995 7.92139 0 0 0
1273 444 1 0.96283 64.47058 15.95234 13.24348 0 0 0
1274 444 1 0.96284 64.47057 17.803519999999992 10.62553 0 0 0
1276 444 1 0.96279 62.867390001106806 15.026729998655824 10.62551 0 0 0
1290 444 2 0.11527 59.682050000000004 16.23828 8.24656 0 0 0
1305 444 3 0.60538 64.47054999999999 18.908609999999996 13.37041 0 0 0
1309 444 3 0.60531 61.91037000000001 17.4305 9.18961 0 0 0
1317 444 3 -0.03012 64.47054000000004 20.12887 14.23327 0 0 0
1321 444 3 -0.03015 60.853570000000005 18.04059999999999 8.32676 0 0 0
1338 444 3 -0.09123000000000001 59.75005 17.275739999999995 7.92141 0 0 0
1353 444 4 -1.02796 64.47056 15.95233 11.28001 0 0 0
1355 444 5 -0.54688 64.47054999999999 17.779559999999996 13.96743 0 0 0
1356 444 5 -0.54688 64.47055 19.09512999999999 12.10693 0 0 0
1360 444 5 -0.54692 62.88814999999997 15.03872999999999 13.96742 0 0 0
1363 444 5 -0.54687 62.88813000000011 18.181519999999992 9.52285 0 0 0
1364 444 5 -0.5468499999999999 61.748840000000015 16.20814 9.52284 0 0 0
1494 444 2 0.11525 64.47056 21.481629999999996 12.56074 0 0 0
1501 444 2 0.11528 61.82867 19.95634 8.24656 0 0 0
1542 444 3 -0.09125 64.47055 21.403119999999998 13.64724 0 0 0
1549 444 3 -0.09125 60.964209999999994 19.378729999999997 7.921399999999999 0 0 0
1275 444 1 0.9628 66.07374000000002 15.026749999999996 10.62553 0 0 0
1308 444 3 0.6054 67.03076000000004 17.43048 9.1896 0 0 0
1320 444 3 -0.03015 68.08755 18.040609999999997 8.32675 0 0 0
1361 444 5 -0.5469000000000001 67.19229000000004 16.20816 9.52284 0 0 0
1362 444 5 -0.54689 66.05297000000002 18.181519999999992 9.52284 0 0 0
1366 444 5 -0.5469000000000001 66.05298 15.038729999999994 13.96744 0 0 0
1500 444 2 0.11528 67.11244999999997 19.956349999999784 8.24655 0 0 0
1548 444 3 -0.09125999999999999 67.97692999999994 19.378739999999997 7.92139 0 0 0
223 444 2 0.1153 20.566750000000006 27.61470999999999 8.24654 0 0 0
271 444 3 -0.09134 19.634299999880994 27.154869997311643 7.92138 0 0 0
231 444 2 0.11528 23.208649999999995 29.140029999999996 12.56076 0 0 0
233 444 2 0.11528 27.630220000000005 23.53662999999999 14.01384 0 0 0
238 444 2 0.11525 24.988329999999998 28.112529999999595 14.01385 0 0 0
279 444 3 -0.09130000000000001 23.140660000000004 29.179279999999995 13.64726 0 0 0
281 444 3 -0.09132999999999999 27.630209999999984 22.538429999999945 14.45003 0 0 0
286 444 3 -0.0912 24.12387 28.611629999999998 14.45004 0 0 0
224 444 2 0.11533 34.69368 27.61470999999999 8.24655 0 0 0
225 444 2 0.11527 32.05180000000001 29.14004 12.56074 0 0 0
244 444 2 0.11528 30.272120000000005 28.112539999999992 14.01384 0 0 0
272 444 3 -0.09141000000000001 35.62615000000001 27.154869999999995 7.92139 0 0 0
273 444 3 -0.09128 32.11981 29.179299999999994 13.64726 0 0 0
292 444 3 -0.09125 31.136589999999998 28.611639999999998 14.45003 0 0 0
246 444 3 0.60546 36.84033000000002 28.9484 9.1896 0 0 0
258 444 3 -0.03019 36.84029 27.72813 8.32674 0 0 0
859 444 2 0.1153 38.98692000000001 27.61470999999999 8.24654 0 0 0
867 444 2 0.11528 41.62882 29.140029999999996 12.56076 0 0 0
874 444 2 0.11525 43.40849999999999 28.112529999999595 14.01385 0 0 0
907 444 3 -0.09134 38.054469999999995 27.154869997311643 7.92138 0 0 0
915 444 3 -0.09130000000000001 41.56082 29.179279999999995 13.64726 0 0 0
922 444 3 -0.0912 42.54404 28.611629999999998 14.45004 0 0 0
1935 453 7 -0.35 42.7267892349678 22.690875882558768 14.151059372083095 -1 0 1
861 444 2 0.11527 50.471959999999996 29.14004 12.56074 0 0 0
869 444 2 0.11528 46.05039000000001 23.53662999999999 14.01384 0 0 0
880 444 2 0.11528 48.69229 28.112539999999992 14.01384 0 0 0
909 444 3 -0.09128 50.53997 29.179299999999994 13.64726 0 0 0
917 444 3 -0.09132999999999999 46.05037999999998 22.538429999999945 14.45003 0 0 0
928 444 3 -0.09125 49.556760000000004 28.611639999999998 14.45003 0 0 0
860 444 2 0.11533 53.1138400037954 27.61470999999999 8.24655 0 0 0
882 444 3 0.60546 55.26050000000001 28.9484 9.1896 0 0 0
894 444 3 -0.03019 55.260450000000034 27.72813 8.32674 0 0 0
908 444 3 -0.09141000000000001 54.046319999999994 27.154869999999995 7.92139 0 0 0
1495 444 2 0.1153 57.40709 27.61470999999999 8.24654 0 0 0
1543 444 3 -0.09134 56.47462999977481 27.154869997311643 7.92138 0 0 0
1503 444 2 0.11528 60.048989999999996 29.140029999999996 12.56076 0 0 0
1505 444 2 0.11528 64.47056 23.53662999999999 14.01384 0 0 0
1510 444 2 0.11525 61.82866999999994 28.112529999999595 14.01385 0 0 0
1551 444 3 -0.09130000000000001 59.98099000000001 29.179279999999995 13.64726 0 0 0
1553 444 3 -0.09132999999999999 64.47054000000003 22.538429999999945 14.45003 0 0 0
1558 444 3 -0.0912 60.9642 28.611629999999998 14.45004 0 0 0
1496 444 2 0.11533 71.53401 27.61470999999999 8.24655 0 0 0
1497 444 2 0.11527 68.89213 29.14004 12.56074 0 0 0
1516 444 2 0.11528 67.11246 28.112539999999992 14.01384 0 0 0
1545 444 3 -0.09128 68.96014000000001 29.179299999999994 13.64726 0 0 0
1564 444 3 -0.09125 67.97692000000004 28.611639999999998 14.45003 0 0 0
1518 444 3 0.60546 73.68066 28.9484 9.1896 0 0 0
1530 444 3 -0.03019 73.68062000000002 27.72813 8.32674 0 0 0
1544 444 3 -0.09141000000000001 72.46648999999996 27.154869999999995 7.92139 0 0 0
227 444 2 0.11529 23.20864 32.19063 8.24655 0 0 0
275 444 3 -0.09128 23.14065 33.22809 7.92139 0 0 0
1928 451 7 -0.35 26.057650000581138 36.672007089144984 8.538098995070369 0 1 -1
216 444 1 0.96279 35.23713 30.979069999999997 10.62551 0 0 0
230 444 2 0.11527 32.051779999999994 32.190619999999996 8.24656 0 0 0
247 444 3 0.6054 34.28012 30.426559999999757 13.37042 0 0 0
249 444 3 0.60531 34.2801 33.382839999999995 9.18961 0 0 0
259 444 3 -0.03019 33.22332 29.816419999999997 14.23325 0 0 0
261 444 3 -0.03015 33.22331 33.99294 8.32676 0 0 0
278 444 3 -0.09123000000000001 32.11979 33.22807 7.92141 0 0 0
298 444 5 -0.54696 35.70096 29.419659999999997 9.52284 0 0 0
299 444 5 -0.54689 34.11857 30.33328 12.1069 0 0 0
300 444 5 -0.54692 35.25788 30.991069999999997 13.96742 0 0 0
303 444 5 -0.54687 35.25787000000001 34.1338599999998 9.52285 0 0 0
304 444 5 -0.5468499999999999 34.11857 32.16047999999999 9.52284 0 0 0
441 444 2 0.11528 34.19840000000001 35.90867999999999 8.24656 0 0 0
489 444 3 -0.09125 33.33394 35.33107 7.921399999999999 0 0 0
213 444 1 0.96283 36.84032 31.90468 13.24348 0 0 0
214 444 1 0.96284 36.84031000000001 33.75586 10.62553 0 0 0
215 444 1 0.9628 38.44347 30.979089999999996 10.62553 0 0 0
245 444 3 0.60538 36.84028 34.86095 13.37041 0 0 0
248 444 3 0.6054 39.4005 33.38282 9.1896 0 0 0
250 444 3 0.60539 39.40051 30.42652999999954 13.37042 0 0 0
257 444 3 -0.03012 36.84026999999999 36.081209999999544 14.23327 0 0 0
260 444 3 -0.03015 40.45728 33.99295 8.32675 0 0 0
262 444 3 -0.03016 40.45729 29.8164 14.23328 0 0 0
293 444 4 -1.02796 36.84030000000003 31.90467 11.28001 0 0 0
295 444 5 -0.54688 36.84028 33.731899999999996 13.96743 0 0 0
296 444 5 -0.54688 36.84029000000001 35.04747 12.10693 0 0 0
297 444 5 -0.54688 37.9796 29.419659999999997 9.52284 0 0 0
301 444 5 -0.5469000000000001 39.56203 32.1605 9.52284 0 0 0
302 444 5 -0.54689 38.42271 34.13386 9.52284 0 0 0
305 444 5 -0.54688 39.56203 30.33327 12.10693 0 0 0
306 444 5 -0.5469000000000001 38.42271 30.991069999999993 13.96744 0 0 0
440 444 2 0.11528 39.48219000000001 35.908689999999986 8.24655 0 0 0
488 444 3 -0.09125999999999999 40.34667 35.33108 7.92139 0 0 0
863 444 2 0.11529 41.62881000000001 32.19063 8.24655 0 0 0
911 444 3 -0.09128 41.56081000000001 33.22809 7.92139 0 0 0
866 444 2 0.11527 50.47194999999999 32.190619999999996 8.24656 0 0 0
914 444 3 -0.09123000000000001 50.53995000000002 33.22807 7.92141 0 0 0
849 444 1 0.96283 55.26048000000001 31.90468 13.24348 0 0 0
850 444 1 0.96284 55.260470000000005 33.75586 10.62553 0 0 0
851 444 1 0.9628 56.863640000000004 30.979089999999996 10.62553 0 0 0
852 444 1 0.96279 53.65729 30.979069999999997 10.62551 0 0 0
881 444 3 0.60538 55.260450000000006 34.86095 13.37041 0 0 0
883 444 3 0.6054 52.70027999999993 30.426559999999757 13.37042 0 0 0
884 444 3 0.6054 57.82065999999999 33.38282 9.1896 0 0 0
885 444 3 0.60531 52.70027000000001 33.382839999999995 9.18961 0 0 0
886 444 3 0.60539 57.82068 30.42652999999954 13.37042 0 0 0
893 444 3 -0.03012 55.260440000000074 36.081209999999544 14.23327 0 0 0
895 444 3 -0.03019 51.64349 29.816419999999997 14.23325 0 0 0
897 444 3 -0.03015 51.64347000000001 33.99294 8.32676 0 0 0
929 444 4 -1.02796 55.260470000000154 31.90467 11.28001 0 0 0
931 444 5 -0.54688 55.260450000000006 33.731899999999996 13.96743 0 0 0
932 444 5 -0.54688 55.26045000000002 35.04747 12.10693 0 0 0
933 444 5 -0.54688 56.399770000000004 29.419659999999997 9.52284 0 0 0
934 444 5 -0.54696 54.12113000000002 29.419659999999997 9.52284 0 0 0
935 444 5 -0.54689 52.53874000000001 30.33328 12.1069 0 0 0
936 444 5 -0.54692 53.67805 30.991069999999997 13.96742 0 0 0
938 444 5 -0.54689 56.84287 34.13386 9.52284 0 0 0
939 444 5 -0.54687 53.67803000000001 34.1338599999998 9.52285 0 0 0
940 444 5 -0.5468499999999999 52.53873999999999 32.16047999999999 9.52284 0 0 0
942 444 5 -0.5469000000000001 56.84288 30.991069999999993 13.96744 0 0 0
1077 444 2 0.11528 52.618570000000005 35.90867999999999 8.24656 0 0 0
1125 444 3 -0.09125 51.75411 35.33107 7.921399999999999 0 0 0
896 444 3 -0.03015 58.877449999999996 33.99295 8.32675 0 0 0
898 444 3 -0.03016 58.87746 29.8164 14.23328 0 0 0
937 444 5 -0.5469000000000001 57.98219000000002 32.1605 9.52284 0 0 0
941 444 5 -0.54688 57.9822 30.33327 12.10693 0 0 0
1076 444 2 0.11528 57.90236000000002 35.908689999999986 8.24655 0 0 0
1124 444 3 -0.09125999999999999 58.766830000000006 35.33108 7.92139 0 0 0
1499 444 2 0.11529 60.048970000000004 32.19063 8.24655 0 0 0
1547 444 3 -0.09128 59.98098000000001 33.22809 7.92139 0 0 0
1488 444 1 0.96279 72.07746 30.979069999999997 10.62551 0 0 0
1502 444 2 0.11527 68.89211999999999 32.190619999999996 8.24656 0 0 0
1519 444 3 0.6054 71.12045000000005 30.426559999999757 13.37042 0 0 0
1521 444 3 0.60531 71.12044 33.382839999999995 9.18961 0 0 0
1531 444 3 -0.03019 70.06365 29.816419999999997 14.23325 0 0 0
1533 444 3 -0.03015 70.06364000000002 33.99294 8.32676 0 0 0
1550 444 3 -0.09123000000000001 68.96012 33.22807 7.92141 0 0 0
1571 444 5 -0.54689 70.9589 30.33328 12.1069 0 0 0
1572 444 5 -0.54692 72.09822000000001 30.991069999999997 13.96742 0 0 0
1575 444 5 -0.54687 72.09820000000002 34.1338599999998 9.52285 0 0 0
1576 444 5 -0.5468499999999999 70.95891000000003 32.16047999999999 9.52284 0 0 0
1713 444 2 0.11528 71.03874 35.90867999999999 8.24656 0 0 0
1761 444 3 -0.09125 70.17427 35.33107 7.921399999999999 0 0 0
1485 444 1 0.96283 73.68064999999999 31.90468 13.24348 0 0 0
1486 444 1 0.96284 73.68064 33.75586 10.62553 0 0 0
1487 444 1 0.9628 75.28381000000003 30.979089999999996 10.62553 0 0 0
1517 444 3 0.60538 73.68062 34.86095 13.37041 0 0 0
1520 444 3 0.6054 76.24083000000002 33.38282 9.1896 0 0 0
1522 444 3 0.60539 76.24084000000026 30.42652999999954 13.37042 0 0 0
1529 444 3 -0.03012 73.68061000000007 36.081209999999544 14.23327 0 0 0
1532 444 3 -0.03015 77.29762 33.99295 8.32675 0 0 0
1534 444 3 -0.03016 77.29762 29.8164 14.23328 0 0 0
1565 444 4 -1.02796 73.68063 31.90467 11.28001 0 0 0
1567 444 5 -0.54688 73.68062 33.731899999999996 13.96743 0 0 0
1568 444 5 -0.54688 73.68062000000005 35.04747 12.10693 0 0 0
1569 444 5 -0.54688 74.81993000000001 29.419659999999997 9.52284 0 0 0
1570 444 5 -0.54696 72.54129 29.419659999999997 9.52284 0 0 0
1573 444 5 -0.5469000000000001 76.40236000000007 32.1605 9.52284 0 0 0
1574 444 5 -0.54689 75.26304 34.13386 9.52284 0 0 0
1577 444 5 -0.54688 76.40237 30.33327 12.10693 0 0 0
1578 444 5 -0.5469000000000001 75.26305000000002 30.991069999999993 13.96744 0 0 0
1712 444 2 0.11528 76.32252 35.908689999999986 8.24655 0 0 0
1760 444 3 -0.09125999999999999 77.187 35.33108 7.92139 0 0 0
483 444 3 -0.09134 28.844369999999998 43.107209999999995 7.92138 0 0 0
1917 447 7 -0.35 28.582117116155043 40.82038876779603 11.290977721640282 0 1 -1
1916 447 7 -0.35 28.84359316046019 39.66710098161992 9.77600896321295 0 1 -1
435 444 2 0.1153 29.776819999999997 43.56705 8.24654 0 0 0
1915 447 6 0.7 29.266611036752067 40.55481534583624 10.393386469858337 0 1 -1
434 444 2 0.11525 36.84029 37.43397 12.56074 0 0 0
445 444 2 0.11528 36.840289999999996 39.488969999999995 14.01384 0 0 0
482 444 3 -0.09125 36.84028000000001 37.35546 13.64724 0 0 0
493 444 3 -0.09132999999999999 36.84027999999999 38.49076999999999 14.45003 0 0 0
436 444 2 0.11533 43.903740000000006 43.567049999999995 8.24655 0 0 0
470 444 3 -0.03019 46.05036000000002 43.68047 8.32674 0 0 0
484 444 3 -0.09141000000000001 44.836220000000004 43.107209999999995 7.92139 0 0 0
1071 444 2 0.1153 48.19699 43.56705 8.24654 0 0 0
1119 444 3 -0.09134 47.26452999999999 43.107209999999995 7.92138 0 0 0
1070 444 2 0.11525 55.26046 37.43397 12.56074 0 0 0
1081 444 2 0.11528 55.260459999999995 39.488969999999995 14.01384 0 0 0
1118 444 3 -0.09125 55.26045000000003 37.35546 13.64724 0 0 0
1129 444 3 -0.09132999999999999 55.26044 38.49076999999999 14.45003 0 0 0
1072 444 2 0.11533 62.323910000000005 43.567049999999995 8.24655 0 0 0
1106 444 3 -0.03019 64.47052 43.68047 8.32674 0 0 0
1120 444 3 -0.09141000000000001 63.25639 43.107209999999995 7.92139 0 0 0
1707 444 2 0.1153 66.61715000000001 43.56705 8.24654 0 0 0
1755 444 3 -0.09134 65.6847 43.107209999999995 7.92138 0 0 0
1921 449 6 0.7 70.17985207928871 37.7249328115957 13.109642915264763 -1 -1 0
1923 449 7 -0.35 69.87436164257052 37.7812996649294 11.991979299220677 -1 -1 0
1922 449 7 -0.35 70.40212454265827 38.308541660867085 14.087328371371738 -1 -1 0
1929 451 7 -0.35 79.52680052643976 37.77521117908875 9.107737738800573 -1 1 -1
1706 444 2 0.11525 73.68062000000005 37.43397 12.56074 0 0 0
1717 444 2 0.11528 73.68062000000005 39.488969999999995 14.01384 0 0 0
1754 444 3 -0.09125 73.68062000000003 37.35546 13.64724 0 0 0
1765 444 3 -0.09132999999999999 73.68061 38.49076999999999 14.45003 0 0 0
1927 451 6 0.7 25.20114351508485 37.09342177582227 9.195994311985665 0 1 -1
1708 444 2 0.11533 80.74408 43.567049999999995 8.24655 0 0 0
1742 444 3 -0.03019 82.89069000000003 43.68047 8.32674 0 0 0
1756 444 3 -0.09141000000000001 81.67655 43.107209999999995 7.92139 0 0 0
439 444 2 0.11529 32.41870999999998 48.142969999999984 8.24655 0 0 0
443 444 2 0.11528 32.41872 45.092369999999995 12.56076 0 0 0
450 444 2 0.11525 34.1984 44.06487 14.01385 0 0 0
487 444 3 -0.09128 32.35072000000002 49.18043 7.92139 0 0 0
491 444 3 -0.09130000000000001 32.350720000000024 45.13162 13.64726 0 0 0
498 444 3 -0.0912 33.33394 44.56397 14.45004 0 0 0
437 444 2 0.11527 41.26187000000001 45.09238 12.56074 0 0 0
442 444 2 0.11527 41.26185000000001 48.14296 8.24656 0 0 0
456 444 2 0.11528 39.48219 44.06488 14.01384 0 0 0
471 444 3 -0.03019 42.43339 45.76876 14.23325 0 0 0
473 444 3 -0.03015 42.43338 49.94528 8.32676 0 0 0
485 444 3 -0.09128 41.32987 45.13164 13.64726 0 0 0
490 444 3 -0.09123000000000001 41.32985 49.18041 7.92141 0 0 0
504 444 3 -0.09125 40.34666 44.56398 14.45003 0 0 0
511 444 5 -0.54689 43.32864000000001 46.28561999640482 12.1069 0 0 0
516 444 5 -0.5468499999999999 43.32864 48.11282 9.52284 0 0 0
425 444 1 0.96283 46.05038 47.85702 13.24348 0 0 0
426 444 1 0.96284 46.05037000000001 49.7082 10.62553 0 0 0
427 444 1 0.9628 47.65354 46.93143 10.62553 0 0 0
428 444 1 0.96279 44.44719000000002 46.931399996404814 10.62551 0 0 0
457 444 3 0.60538 46.05035000000001 50.813289999999995 13.37041 0 0 0
458 444 3 0.60546 46.05040000000001 44.900739999999985 9.1896 0 0 0
459 444 3 0.6054 43.49017999999999 46.3789 13.37042 0 0 0
460 444 3 0.6054 48.61057 49.335149999999985 9.1896 0 0 0
461 444 3 0.60531 43.49017 49.33518 9.18961 0 0 0
462 444 3 0.60539 48.61058 46.37886999999999 13.37042 0 0 0
472 444 3 -0.03015 49.66735000000014 49.94529 8.32675 0 0 0
474 444 3 -0.03016 49.66736 45.76874 14.23328 0 0 0
505 444 4 -1.02796 46.05037000000003 47.85701 11.28001 0 0 0
507 444 5 -0.54688 46.05034999999998 49.68423 13.96743 0 0 0
508 444 5 -0.54688 46.05035 50.99980999999999 12.10693 0 0 0
509 444 5 -0.54688 47.18967 45.372 9.52284 0 0 0
510 444 5 -0.54696 44.91102999999999 45.372 9.52284 0 0 0
512 444 5 -0.54692 44.46795 46.94340999640482 13.96742 0 0 0
513 444 5 -0.5469000000000001 48.77209 48.11283999999999 9.52284 0 0 0
514 444 5 -0.54689 47.632770000000015 50.08619999999999 9.52284 0 0 0
515 444 5 -0.54687 44.46793000000001 50.0862 9.52285 0 0 0
517 444 5 -0.54688 48.7721 46.28561 12.10693 0 0 0
518 444 5 -0.5469000000000001 47.63278 46.94341 13.96744 0 0 0
1075 444 2 0.11529 50.83888000000001 48.142969999999984 8.24655 0 0 0
1079 444 2 0.11528 50.83889 45.092369999999995 12.56076 0 0 0
1086 444 2 0.11525 52.61857 44.06487 14.01385 0 0 0
1123 444 3 -0.09128 50.77088 49.18043 7.92139 0 0 0
1127 444 3 -0.09130000000000001 50.77089000000001 45.13162 13.64726 0 0 0
1134 444 3 -0.0912 51.7541 44.56397 14.45004 0 0 0
1061 444 1 0.96283 64.47055 47.85702 13.24348 0 0 0
1062 444 1 0.96284 64.47054000000006 49.7082 10.62553 0 0 0
1064 444 1 0.96279 62.86736000015503 46.931399996404814 10.62551 0 0 0
1073 444 2 0.11527 59.682030000000005 45.09238 12.56074 0 0 0
1078 444 2 0.11527 59.68202000000001 48.14296 8.24656 0 0 0
1092 444 2 0.11528 57.90236 44.06488 14.01384 0 0 0
1093 444 3 0.60538 64.47052 50.813289999999995 13.37041 0 0 0
1094 444 3 0.60546 64.47056 44.900739999999985 9.1896 0 0 0
1095 444 3 0.6054 61.91035 46.3789 13.37042 0 0 0
1097 444 3 0.60531 61.91034 49.33518 9.18961 0 0 0
1107 444 3 -0.03019 60.85356 45.76876 14.23325 0 0 0
1109 444 3 -0.03015 60.85354 49.94528 8.32676 0 0 0
1121 444 3 -0.09128 59.75004 45.13164 13.64726 0 0 0
1126 444 3 -0.09123000000000001 59.75002 49.18041 7.92141 0 0 0
1140 444 3 -0.09125 58.76682000000001 44.56398 14.45003 0 0 0
1141 444 4 -1.02796 64.47053000000002 47.85701 11.28001 0 0 0
1143 444 5 -0.54688 64.47052 49.68423 13.96743 0 0 0
1144 444 5 -0.54688 64.47052000000001 50.99980999999999 12.10693 0 0 0
1146 444 5 -0.54696 63.3312 45.372 9.52284 0 0 0
1147 444 5 -0.54689 61.748810000528096 46.28561999640482 12.1069 0 0 0
1148 444 5 -0.54692 62.888120000000015 46.94340999640482 13.96742 0 0 0
1151 444 5 -0.54687 62.88810000000001 50.0862 9.52285 0 0 0
1152 444 5 -0.5468499999999999 61.748810000000006 48.11282 9.52284 0 0 0
1063 444 1 0.9628 66.07371 46.93143 10.62553 0 0 0
1096 444 3 0.6054 67.03073000000002 49.335149999999985 9.1896 0 0 0
1098 444 3 0.60539 67.03074000000001 46.37886999999999 13.37042 0 0 0
1108 444 3 -0.03015 68.08752000000005 49.94529 8.32675 0 0 0
1110 444 3 -0.03016 68.08752 45.76874 14.23328 0 0 0
1145 444 5 -0.54688 65.60984 45.372 9.52284 0 0 0
1149 444 5 -0.5469000000000001 67.19226 48.11283999999999 9.52284 0 0 0
1150 444 5 -0.54689 66.05294000000005 50.08619999999999 9.52284 0 0 0
1153 444 5 -0.54688 67.19227 46.28561 12.10693 0 0 0
1154 444 5 -0.5469000000000001 66.05295 46.94341 13.96744 0 0 0
1711 444 2 0.11529 69.25904 48.142969999999984 8.24655 0 0 0
1715 444 2 0.11528 69.25905000000002 45.092369999999995 12.56076 0 0 0
1722 444 2 0.11525 71.03873000000004 44.06487 14.01385 0 0 0
1759 444 3 -0.09128 69.19105 49.18043 7.92139 0 0 0
1763 444 3 -0.09130000000000001 69.19106000000004 45.13162 13.64726 0 0 0
1770 444 3 -0.0912 70.17427 44.56397 14.45004 0 0 0
1709 444 2 0.11527 78.1022 45.09238 12.56074 0 0 0
1714 444 2 0.11527 78.10218000000003 48.14296 8.24656 0 0 0
1728 444 2 0.11528 76.32252 44.06488 14.01384 0 0 0
1743 444 3 -0.03019 79.27372 45.76876 14.23325 0 0 0
1745 444 3 -0.03015 79.27371 49.94528 8.32676 0 0 0
1757 444 3 -0.09128 78.17021 45.13164 13.64726 0 0 0
1762 444 3 -0.09123000000000001 78.17018999999999 49.18041 7.92141 0 0 0
1776 444 3 -0.09125 77.18699 44.56398 14.45003 0 0 0
1697 444 1 0.96283 82.89071999999999 47.85702 13.24348 0 0 0
1698 444 1 0.96284 82.89071 49.7082 10.62553 0 0 0
1699 444 1 0.9628 84.49387000000002 46.93143 10.62553 0 0 0
1700 444 1 0.96279 81.287530000005 46.931399996404814 10.62551 0 0 0
1729 444 3 0.60538 82.89068 50.813289999999995 13.37041 0 0 0
1730 444 3 0.60546 82.89073 44.900739999999985 9.1896 0 0 0
1731 444 3 0.6054 80.33051 46.3789 13.37042 0 0 0
1732 444 3 0.6054 85.4509 49.335149999999985 9.1896 0 0 0
1733 444 3 0.60531 80.33049999999999 49.33518 9.18961 0 0 0
1734 444 3 0.60539 85.45091000000004 46.37886999999999 13.37042 0 0 0
1744 444 3 -0.03015 86.50768000000005 49.94529 8.32675 0 0 0
1746 444 3 -0.03016 86.50769 45.76874 14.23328 0 0 0
1777 444 4 -1.02796 82.8907 47.85701 11.28001 0 0 0
1779 444 5 -0.54688 82.89068 49.68423 13.96743 0 0 0
1780 444 5 -0.54688 82.89069 50.99980999999999 12.10693 0 0 0
1781 444 5 -0.54688 84.03 45.372 9.52284 0 0 0
1782 444 5 -0.54696 81.75136 45.372 9.52284 0 0 0
1783 444 5 -0.54689 80.16897000009475 46.28561999640482 12.1069 0 0 0
1784 444 5 -0.54692 81.30828000000005 46.94340999640482 13.96742 0 0 0
1785 444 5 -0.5469000000000001 85.61243000000002 48.11283999999999 9.52284 0 0 0
1786 444 5 -0.54689 84.47311000000002 50.08619999999999 9.52284 0 0 0
1787 444 5 -0.54687 81.30827000000001 50.0862 9.52285 0 0 0
1788 444 5 -0.5468499999999999 80.16897000000075 48.11282 9.52284 0 0 0
1789 444 5 -0.54688 85.61243000000002 46.28561 12.10693 0 0 0
1790 444 5 -0.5469000000000001 84.47310999999999 46.94341 13.96744 0 0 0
469 444 3 -0.03012 46.05033999999999 52.03354999999906 14.23327 0 0 0
1105 444 3 -0.03012 64.47051000000002 52.03354999999906 14.23327 0 0 0
1741 444 3 -0.03012 82.89067000000006 52.03354999999906 14.23327 0 0 0
157 444 3 -0.03017 18.42015 6.45834 15.84675 0 0 0
793 444 3 -0.03017 36.84032 6.45834 15.84675 0 0 0
1429 444 3 -0.03017 55.26048 6.45834 15.84675 0 0 0
111 444 1 0.96279 18.42015 10.634879999999992 16.83654 0 0 0
112 444 1 0.96274 18.420139999999996 8.78369999905138 19.4545 0 0 0
113 444 1 0.96273 20.02335 11.560479999999945 19.45451 0 0 0
114 444 1 0.9627599999999999 16.81701 11.56045 19.45448 0 0 0
145 444 3 0.60541 18.420159999999996 7.678609999999997 16.7096 0 0 0
146 444 3 0.60537 18.420120000000004 13.59115 20.89041 0 0 0
147 444 3 0.60534 15.859960000000001 12.113019999999997 16.7096 0 0 0
148 444 3 0.60537 20.98035 9.156729999999865 20.89042 0 0 0
149 444 3 0.60538 15.859960000000001 9.15674 20.89041 0 0 0
150 444 3 0.60545 20.980350000000005 12.113019999999997 16.70959 0 0 0
159 444 3 -0.03021 14.803180000000001 12.72316 15.84676 0 0 0
161 444 3 -0.03013 14.803160000000002 8.546629999999999 21.75327 0 0 0
188 444 4 -1.02787 18.420179999999995 10.634879999086994 18.80001 0 0 0
201 444 5 -0.54686 18.42016 8.80766 16.11259 0 0 0
202 444 5 -0.54688 18.42015999972152 7.492089999327911 17.9731 0 0 0
203 444 5 -0.54686 19.55948 13.119880000000002 20.55717 0 0 0
204 444 5 -0.5468499999999999 17.28083 13.119869999999999 20.55716 0 0 0
205 444 5 -0.54682 15.698429999999991 12.206279999999996 17.97311 0 0 0
206 444 5 -0.54688 16.837740000000004 11.54851 16.11259 0 0 0
207 444 5 -0.5468499999999999 21.141900000000007 10.37907 20.55719 0 0 0
208 444 5 -0.54687 20.00258 8.40571 20.55719 0 0 0
209 444 5 -0.54691 16.83774000000001 8.4057 20.55719 0 0 0
210 444 5 -0.5468499999999999 15.698430000000002 10.379069999999999 20.55717 0 0 0
211 444 5 -0.54686 21.1419 12.206289999999992 17.97311 0 0 0
212 444 5 -0.54688 20.002579999999995 11.548509999999993 16.1126 0 0 0
120 444 2 0.11525 24.988340000000004 14.427049999999998 16.06617 0 0 0
133 444 2 0.11531 23.208659999999988 10.34893999999995 21.83348 0 0 0
137 444 2 0.11531 23.208659999999995 13.39955 17.51927 0 0 0
160 444 3 -0.03011 22.037129999582028 8.546629998748134 21.75328 0 0 0
162 444 3 -0.03018 22.037150000000004 12.72317 15.84676 0 0 0
168 444 3 -0.09125999999999999 24.12388 13.927949999999997 15.62998 0 0 0
181 444 3 -0.09139 23.14067 9.31149 22.15864 0 0 0
185 444 3 -0.09137000000000001 23.140660000000004 13.360289999999999 16.43275 0 0 0
126 444 2 0.11529 30.272130000000004 14.427029999999991 16.06618 0 0 0
131 444 2 0.11527 32.05181 13.399539999999998 17.51928 0 0 0
136 444 2 0.11527 32.05180000000001 10.348949999999942 21.83347 0 0 0
174 444 3 -0.09125 31.136590000000005 13.927939999999996 15.62999 0 0 0
179 444 3 -0.09131 32.11981000000001 13.360279999999992 16.43277 0 0 0
184 444 3 -0.09129 32.119800000000005 9.311499999999999 22.15862 0 0 0
750 444 1 0.9627599999999999 35.23717 11.56045 19.45448 0 0 0
783 444 3 0.60534 34.28012 12.113019999999997 16.7096 0 0 0
785 444 3 0.60538 34.28012 9.15674 20.89041 0 0 0
795 444 3 -0.03021 33.22334 12.72316 15.84676 0 0 0
797 444 3 -0.03013 33.22333 8.546629999999999 21.75327 0 0 0
840 444 5 -0.5468499999999999 35.701 13.119869999999999 20.55716 0 0 0
841 444 5 -0.54682 34.11859 12.206279999999996 17.97311 0 0 0
842 444 5 -0.54688 35.25791000000003 11.54851 16.11259 0 0 0
845 444 5 -0.54691 35.25791 8.4057 20.55719 0 0 0
846 444 5 -0.5468499999999999 34.1186 10.379069999999999 20.55717 0 0 0
747 444 1 0.96279 36.84032 10.634879999999992 16.83654 0 0 0
748 444 1 0.96274 36.840310000000024 8.78369999905138 19.4545 0 0 0
749 444 1 0.96273 38.44350999999999 11.560479999999945 19.45451 0 0 0
756 444 2 0.11525 43.40849999999999 14.427049999999998 16.06617 0 0 0
769 444 2 0.11531 41.62881999999999 10.34893999999995 21.83348 0 0 0
773 444 2 0.11531 41.62883 13.39955 17.51927 0 0 0
781 444 3 0.60541 36.84031999999999 7.678609999999997 16.7096 0 0 0
782 444 3 0.60537 36.84029000000002 13.59115 20.89041 0 0 0
784 444 3 0.60537 39.40051000000001 9.156729999999865 20.89042 0 0 0
786 444 3 0.60545 39.40052000000001 12.113019999999997 16.70959 0 0 0
796 444 3 -0.03011 40.457300000000004 8.546629998748134 21.75328 0 0 0
798 444 3 -0.03018 40.45732 12.72317 15.84676 0 0 0
804 444 3 -0.09125999999999999 42.544050000000006 13.927949999999997 15.62998 0 0 0
817 444 3 -0.09139 41.56084 9.31149 22.15864 0 0 0
821 444 3 -0.09137000000000001 41.56083000000001 13.360289999999999 16.43275 0 0 0
824 444 4 -1.02787 36.84034999999929 10.634879999086994 18.80001 0 0 0
837 444 5 -0.54686 36.84033000000001 8.80766 16.11259 0 0 0
838 444 5 -0.54688 36.84033 7.492089999327911 17.9731 0 0 0
839 444 5 -0.54686 37.97965000000001 13.119880000000002 20.55717 0 0 0
843 444 5 -0.5468499999999999 39.56206999999999 10.37907 20.55719 0 0 0
844 444 5 -0.54687 38.42275 8.40571 20.55719 0 0 0
847 444 5 -0.54686 39.56206999999999 12.206289999999992 17.97311 0 0 0
848 444 5 -0.54688 38.42275 11.548509999999993 16.1126 0 0 0
762 444 2 0.11529 48.6923 14.427029999999991 16.06618 0 0 0
767 444 2 0.11527 50.47197 13.399539999999998 17.51928 0 0 0
772 444 2 0.11527 50.47197 10.348949999999942 21.83347 0 0 0
810 444 3 -0.09125 49.55676000000001 13.927939999999996 15.62999 0 0 0
815 444 3 -0.09131 50.53996999999999 13.360279999999992 16.43277 0 0 0
820 444 3 -0.09129 50.53997 9.311499999999999 22.15862 0 0 0
1383 444 1 0.96279 55.260490000000026 10.634879999999992 16.83654 0 0 0
1384 444 1 0.96274 55.26046999945232 8.78369999905138 19.4545 0 0 0
1385 444 1 0.96273 56.86368000000001 11.560479999999945 19.45451 0 0 0
1386 444 1 0.9627599999999999 53.657340000000026 11.56045 19.45448 0 0 0
1417 444 3 0.60541 55.26049000000003 7.678609999999997 16.7096 0 0 0
1418 444 3 0.60537 55.26045000000003 13.59115 20.89041 0 0 0
1419 444 3 0.60534 52.70029000000001 12.113019999999997 16.7096 0 0 0
1420 444 3 0.60537 57.82068000000005 9.156729999999865 20.89042 0 0 0
1421 444 3 0.60538 52.700289999999995 9.15674 20.89041 0 0 0
1422 444 3 0.60545 57.82068999999999 12.113019999999997 16.70959 0 0 0
1431 444 3 -0.03021 51.64351 12.72316 15.84676 0 0 0
1433 444 3 -0.03013 51.64349 8.546629999999999 21.75327 0 0 0
1460 444 4 -1.02787 55.260519999999794 10.634879999086994 18.80001 0 0 0
1473 444 5 -0.54686 55.26050000000001 8.80766 16.11259 0 0 0
1474 444 5 -0.54688 55.26048999966212 7.492089999327911 17.9731 0 0 0
1475 444 5 -0.54686 56.39981 13.119880000000002 20.55717 0 0 0
1476 444 5 -0.5468499999999999 54.12117 13.119869999999999 20.55716 0 0 0
1477 444 5 -0.54682 52.538759999999996 12.206279999999996 17.97311 0 0 0
1478 444 5 -0.54688 53.678070000000005 11.54851 16.11259 0 0 0
1480 444 5 -0.54687 56.84291999999999 8.40571 20.55719 0 0 0
1481 444 5 -0.54691 53.678070000000005 8.4057 20.55719 0 0 0
1482 444 5 -0.5468499999999999 52.53876000000001 10.379069999999999 20.55717 0 0 0
1484 444 5 -0.54688 56.84291999999999 11.548509999999993 16.1126 0 0 0
1392 444 2 0.11525 61.82866999999999 14.427049999999998 16.06617 0 0 0
1405 444 2 0.11531 60.04899 10.34893999999995 21.83348 0 0 0
1409 444 2 0.11531 60.04900000000001 13.39955 17.51927 0 0 0
1432 444 3 -0.03011 58.877470000000024 8.546629998748134 21.75328 0 0 0
1434 444 3 -0.03018 58.87748000000009 12.72317 15.84676 0 0 0
1440 444 3 -0.09125999999999999 60.96421000000005 13.927949999999997 15.62998 0 0 0
1453 444 3 -0.09139 59.981 9.31149 22.15864 0 0 0
1457 444 3 -0.09137000000000001 59.980999999999995 13.360289999999999 16.43275 0 0 0
1479 444 5 -0.5468499999999999 57.98223 10.37907 20.55719 0 0 0
1483 444 5 -0.54686 57.982229999999994 12.206289999999992 17.97311 0 0 0
1398 444 2 0.11529 67.11245999999998 14.427029999999991 16.06618 0 0 0
1403 444 2 0.11527 68.89214 13.399539999999998 17.51928 0 0 0
1408 444 2 0.11527 68.89213999999996 10.348949999999942 21.83347 0 0 0
1446 444 3 -0.09125 67.97692999999998 13.927939999999996 15.62999 0 0 0
1451 444 3 -0.09131 68.96014 13.360279999999992 16.43277 0 0 0
1456 444 3 -0.09129 68.96013000000002 9.311499999999999 22.15862 0 0 0
129 444 2 0.11527 20.566759999999995 14.924839999999922 21.83346 0 0 0
158 444 3 -0.03019 18.420139999999996 14.811409999999992 21.75327 0 0 0
177 444 3 -0.0912 19.634299999999996 15.384669999999996 22.15861 0 0 0
115 444 2 0.11527 27.630220000000005 19.00293 16.06617 0 0 0
128 444 2 0.11529 27.630209999999998 21.057919999999996 17.51927 0 0 0
163 444 3 -0.09130000000000001 27.630210000000005 20.001129999999996 15.62998 0 0 0
176 444 3 -0.09125999999999999 27.63022 21.13644 16.43276 0 0 0
130 444 2 0.11527 34.693689999999975 14.924829999999996 21.83347 0 0 0
178 444 3 -0.09121 35.62615 15.38466 22.15862 0 0 0
765 444 2 0.11527 38.98692999999998 14.924839999999922 21.83346 0 0 0
794 444 3 -0.03019 36.84031 14.811409999999992 21.75327 0 0 0
813 444 3 -0.0912 38.05445999999999 15.384669999999996 22.15861 0 0 0
751 444 2 0.11527 46.05038999999999 19.00293 16.06617 0 0 0
764 444 2 0.11529 46.05037999999999 21.057919999999996 17.51927 0 0 0
799 444 3 -0.09130000000000001 46.05037000000002 20.001129999999996 15.62998 0 0 0
812 444 3 -0.09125999999999999 46.05037999999999 21.13644 16.43276 0 0 0
766 444 2 0.11527 53.11386 14.924829999999996 21.83347 0 0 0
814 444 3 -0.09121 54.046309999999984 15.38466 22.15862 0 0 0
1401 444 2 0.11527 57.40708999999998 14.924839999999922 21.83346 0 0 0
1430 444 3 -0.03019 55.26047 14.811409999999992 21.75327 0 0 0
1449 444 3 -0.0912 56.474630000000005 15.384669999999996 22.15861 0 0 0
1387 444 2 0.11527 64.47055 19.00293 16.06617 0 0 0
1400 444 2 0.11529 64.47054000000003 21.057919999999996 17.51927 0 0 0
1435 444 3 -0.09130000000000001 64.47054000000003 20.001129999999996 15.62998 0 0 0
1448 444 3 -0.09125999999999999 64.47054999999999 21.13644 16.43276 0 0 0
1402 444 2 0.11527 71.53401999999997 14.924829999999996 21.83347 0 0 0
1450 444 3 -0.09121 72.46648 15.38466 22.15862 0 0 0
135 444 2 0.11528 24.98832 22.58323 21.83347 0 0 0
183 444 3 -0.09129 24.12386 23.16085 22.15863 0 0 0
323 444 1 0.96279 27.63022000000001 26.58722 16.83654 0 0 0
324 444 1 0.96274 27.630209999999998 24.736039999999992 19.4545 0 0 0
326 444 1 0.9627599999999999 26.027069999935286 27.512779997311647 19.45448 0 0 0
357 444 3 0.60541 27.630220000000012 23.63095 16.7096 0 0 0
359 444 3 0.60534 25.07003 28.06536 16.7096 0 0 0
361 444 3 0.60538 25.070020000000007 25.10908 20.89041 0 0 0
369 444 3 -0.03017 27.63022 22.410679999999992 15.84675 0 0 0
371 444 3 -0.03021 24.013240000000003 28.6755 15.84676 0 0 0
373 444 3 -0.03013 24.01323 24.498969999999996 21.75327 0 0 0
400 444 4 -1.02787 27.630250000000004 26.58722 18.80001 0 0 0
413 444 5 -0.54686 27.63023000000001 24.76 16.11259 0 0 0
414 444 5 -0.54688 27.63022999999999 23.444419999999887 17.9731 0 0 0
415 444 5 -0.54686 28.76955 29.072219999999998 20.55717 0 0 0
416 444 5 -0.5468499999999999 26.490900000000003 29.07221 20.55716 0 0 0
417 444 5 -0.54682 24.908489999999997 28.158619999999996 17.97311 0 0 0
418 444 5 -0.54688 26.047810000000013 27.500849999999993 16.11259 0 0 0
421 444 5 -0.54691 26.047810000000013 24.358029999999996 20.55719 0 0 0
422 444 5 -0.5468499999999999 24.9085 26.331410000000005 20.55717 0 0 0
1938 454 7 -0.35 23.93628815925755 25.295595285636217 17.742097337857697 0 1 1
1936 454 6 0.7 23.160096874966328 26.157950085424538 17.78514071863114 0 1 1
134 444 2 0.11528 30.272109999999998 22.58323 21.83348 0 0 0
182 444 3 -0.09132999999999999 31.136580000000023 23.16084 22.15864 0 0 0
325 444 1 0.96273 29.23341000000001 27.51282 19.45451 0 0 0
345 444 2 0.11531 32.41873000000001 26.30128 21.83348 0 0 0
360 444 3 0.60537 30.19041 25.109069999999786 20.89042 0 0 0
362 444 3 0.60545 30.190420000000003 28.06536 16.70959 0 0 0
372 444 3 -0.03011 31.247199999999964 24.49895999999991 21.75328 0 0 0
374 444 3 -0.03018 31.24722 28.67551 15.84676 0 0 0
393 444 3 -0.09139 32.35074 25.263819999999996 22.15864 0 0 0
419 444 5 -0.5468499999999999 30.35197000000001 26.33141 20.55719 0 0 0
420 444 5 -0.54687 29.212649999999996 24.358049999999995 20.55719 0 0 0
423 444 5 -0.54686 30.35197 28.158629999999995 17.97311 0 0 0
424 444 5 -0.54688 29.212649999999996 27.50084 16.1126 0 0 0
1934 453 7 -0.35 42.16680136825329 22.90921168721274 15.565682600880761 -1 0 1
1933 453 6 0.7 43.09422362568075 22.326342049509904 15.19050619133434 -1 0 1
348 444 2 0.11527 41.261870000000016 26.301289999999995 21.83347 0 0 0
396 444 3 -0.09129 41.32987 25.26384 22.15862 0 0 0
771 444 2 0.11528 43.40848 22.58323 21.83347 0 0 0
819 444 3 -0.09129 42.54403000000002 23.16085 22.15863 0 0 0
1007 444 3 -0.03021 42.43341 28.6755 15.84676 0 0 0
1009 444 3 -0.03013 42.43339999999999 24.498969999999996 21.75327 0 0 0
1053 444 5 -0.54682 43.32866 28.158619999999996 17.97311 0 0 0
1058 444 5 -0.5468499999999999 43.32867 26.331410000000005 20.55717 0 0 0
770 444 2 0.11528 48.69228 22.58323 21.83348 0 0 0
818 444 3 -0.09132999999999999 49.556740000000005 23.16084 22.15864 0 0 0
959 444 1 0.96279 46.05039 26.58722 16.83654 0 0 0
960 444 1 0.96274 46.05037000000001 24.736039999999992 19.4545 0 0 0
961 444 1 0.96273 47.65358 27.51282 19.45451 0 0 0
962 444 1 0.9627599999999999 44.44724000018591 27.512779997311647 19.45448 0 0 0
993 444 3 0.60541 46.05039000000001 23.63095 16.7096 0 0 0
995 444 3 0.60534 43.49019 28.06536 16.7096 0 0 0
996 444 3 0.60537 48.61058000000001 25.109069999999786 20.89042 0 0 0
997 444 3 0.60538 43.49019000000001 25.10908 20.89041 0 0 0
998 444 3 0.60545 48.61059 28.06536 16.70959 0 0 0
1005 444 3 -0.03017 46.05037999999999 22.410679999999992 15.84675 0 0 0
1008 444 3 -0.03011 49.66737 24.49895999999991 21.75328 0 0 0
1010 444 3 -0.03018 49.667380000000016 28.67551 15.84676 0 0 0
1036 444 4 -1.02787 46.05042000000001 26.58722 18.80001 0 0 0
1049 444 5 -0.54686 46.05040000000002 24.76 16.11259 0 0 0
1050 444 5 -0.54688 46.05038999999998 23.444419999999887 17.9731 0 0 0
1051 444 5 -0.54686 47.18971 29.072219999999998 20.55717 0 0 0
1052 444 5 -0.5468499999999999 44.91107 29.07221 20.55716 0 0 0
1054 444 5 -0.54688 44.46797000000001 27.500849999999993 16.11259 0 0 0
1055 444 5 -0.5468499999999999 48.77214000000001 26.33141 20.55719 0 0 0
1056 444 5 -0.54687 47.632819999999995 24.358049999999995 20.55719 0 0 0
1057 444 5 -0.54691 44.46797000000001 24.358029999999996 20.55719 0 0 0
1059 444 5 -0.54686 48.77213 28.158629999999995 17.97311 0 0 0
1060 444 5 -0.54688 47.63282 27.50084 16.1126 0 0 0
981 444 2 0.11531 50.83889 26.30128 21.83348 0 0 0
1029 444 3 -0.09139 50.77090000000002 25.263819999999996 22.15864 0 0 0
984 444 2 0.11527 59.68203999999999 26.301289999999995 21.83347 0 0 0
1032 444 3 -0.09129 59.75003000000001 25.26384 22.15862 0 0 0
1407 444 2 0.11528 61.82865 22.58323 21.83347 0 0 0
1455 444 3 -0.09129 60.9642 23.16085 22.15863 0 0 0
1595 444 1 0.96279 64.47055 26.58722 16.83654 0 0 0
1596 444 1 0.96274 64.47054000000001 24.736039999999992 19.4545 0 0 0
1598 444 1 0.9627599999999999 62.867410000058484 27.512779997311647 19.45448 0 0 0
1629 444 3 0.60541 64.47056 23.63095 16.7096 0 0 0
1631 444 3 0.60534 61.91036 28.06536 16.7096 0 0 0
1633 444 3 0.60538 61.91036000000002 25.10908 20.89041 0 0 0
1641 444 3 -0.03017 64.47054999999999 22.410679999999992 15.84675 0 0 0
1643 444 3 -0.03021 60.85357 28.6755 15.84676 0 0 0
1645 444 3 -0.03013 60.85356 24.498969999999996 21.75327 0 0 0
1672 444 4 -1.02787 64.47058 26.58722 18.80001 0 0 0
1685 444 5 -0.54686 64.47056 24.76 16.11259 0 0 0
1686 444 5 -0.54688 64.47055999999999 23.444419999999887 17.9731 0 0 0
1688 444 5 -0.5468499999999999 63.33123 29.07221 20.55716 0 0 0
1689 444 5 -0.54682 61.74882999999999 28.158619999999996 17.97311 0 0 0
1690 444 5 -0.54688 62.88814000000178 27.500849999999993 16.11259 0 0 0
1693 444 5 -0.54691 62.88814000000002 24.358029999999996 20.55719 0 0 0
1694 444 5 -0.5468499999999999 61.74883 26.331410000000005 20.55717 0 0 0
1406 444 2 0.11528 67.11245 22.58323 21.83348 0 0 0
1454 444 3 -0.09132999999999999 67.97691 23.16084 22.15864 0 0 0
1597 444 1 0.96273 66.07375000000002 27.51282 19.45451 0 0 0
1617 444 2 0.11531 69.25906 26.30128 21.83348 0 0 0
1632 444 3 0.60537 67.03075000000005 25.109069999999786 20.89042 0 0 0
1634 444 3 0.60545 67.03075 28.06536 16.70959 0 0 0
1644 444 3 -0.03011 68.08753000000002 24.49895999999991 21.75328 0 0 0
1646 444 3 -0.03018 68.08755 28.67551 15.84676 0 0 0
1665 444 3 -0.09139 69.19107000000004 25.263819999999996 22.15864 0 0 0
1687 444 5 -0.54686 65.60988 29.072219999999998 20.55717 0 0 0
1691 444 5 -0.5468499999999999 67.1923 26.33141 20.55719 0 0 0
1692 444 5 -0.54687 66.05298 24.358049999999995 20.55719 0 0 0
1695 444 5 -0.54686 67.19229999999999 28.158629999999995 17.97311 0 0 0
1696 444 5 -0.54688 66.05298 27.50084 16.1126 0 0 0
1937 454 7 -0.35 77.41741645523983 25.79981801957526 18.244982518944262 -1 1 1
1620 444 2 0.11527 78.10219999999998 26.301289999999995 21.83347 0 0 0
1668 444 3 -0.09129 78.1702 25.26384 22.15862 0 0 0
358 444 3 0.60537 27.630190000000027 29.54348999999999 20.89041 0 0 0
370 444 3 -0.03019 27.630210000000012 30.7637499999998 21.75327 0 0 0
389 444 3 -0.0912 28.84436 31.33701 22.15861 0 0 0
332 444 2 0.11525 34.198409999999996 30.379389997311645 16.06617 0 0 0
341 444 2 0.11527 29.776830000000004 30.877179999999996 21.83346 0 0 0
349 444 2 0.11531 32.41873 29.351889999999994 17.51927 0 0 0
380 444 3 -0.09125999999999999 33.33395 29.880289999999988 15.62998 0 0 0
397 444 3 -0.09137000000000001 32.350729999999984 29.312629997311642 16.43275 0 0 0
327 444 2 0.11527 36.840289999999996 34.955269999999985 16.06617 0 0 0
338 444 2 0.11529 39.4822 30.379369999999998 16.06618 0 0 0
343 444 2 0.11527 41.26187 29.351879999999994 17.51928 0 0 0
375 444 3 -0.09130000000000001 36.84028 35.95347 15.62998 0 0 0
386 444 3 -0.09125 40.34666 29.88028 15.62999 0 0 0
391 444 3 -0.09131 41.32987 29.3126199999998 16.43277 0 0 0
342 444 2 0.11527 43.90376 30.87717 21.83347 0 0 0
390 444 3 -0.09121 44.83621 31.337 22.15862 0 0 0
977 444 2 0.11527 48.19698999999999 30.877179999999996 21.83346 0 0 0
994 444 3 0.60537 46.05035999999999 29.54348999999999 20.89041 0 0 0
1006 444 3 -0.03019 46.05037 30.7637499999998 21.75327 0 0 0
1025 444 3 -0.0912 47.26452999999999 31.33701 22.15861 0 0 0
963 444 2 0.11527 55.26044999999999 34.955269999999985 16.06617 0 0 0
968 444 2 0.11525 52.61856999999996 30.379389997311645 16.06617 0 0 0
985 444 2 0.11531 50.83890000000001 29.351889999999994 17.51927 0 0 0
1011 444 3 -0.09130000000000001 55.26044000000001 35.95347 15.62998 0 0 0
1016 444 3 -0.09125999999999999 51.75410999999999 29.880289999999988 15.62998 0 0 0
1033 444 3 -0.09137000000000001 50.770899999999855 29.312629997311642 16.43275 0 0 0
974 444 2 0.11529 57.902360000000016 30.379369999999998 16.06618 0 0 0
978 444 2 0.11527 62.32392000000001 30.87717 21.83347 0 0 0
979 444 2 0.11527 59.68204 29.351879999999994 17.51928 0 0 0
1022 444 3 -0.09125 58.76683 29.88028 15.62999 0 0 0
1026 444 3 -0.09121 63.25638 31.337 22.15862 0 0 0
1027 444 3 -0.09131 59.75003999999999 29.3126199999998 16.43277 0 0 0
1630 444 3 0.60537 64.47052000000004 29.54348999999999 20.89041 0 0 0
1642 444 3 -0.03019 64.47054000000006 30.7637499999998 21.75327 0 0 0
1604 444 2 0.11525 71.03873999999996 30.379389997311645 16.06617 0 0 0
1613 444 2 0.11527 66.61716000000003 30.877179999999996 21.83346 0 0 0
1621 444 2 0.11531 69.25906 29.351889999999994 17.51927 0 0 0
1652 444 3 -0.09125999999999999 70.17428000000001 29.880289999999988 15.62998 0 0 0
1661 444 3 -0.0912 65.6847 31.33701 22.15861 0 0 0
1669 444 3 -0.09137000000000001 69.19106000000004 29.312629997311642 16.43275 0 0 0
1599 444 2 0.11527 73.68062000000002 34.955269999999985 16.06617 0 0 0
1610 444 2 0.11529 76.32253 30.379369999999998 16.06618 0 0 0
1615 444 2 0.11527 78.10220999999999 29.351879999999994 17.51928 0 0 0
1647 444 3 -0.09130000000000001 73.68061 35.95347 15.62998 0 0 0
1658 444 3 -0.09125 77.18699000000001 29.88028 15.62999 0 0 0
1663 444 3 -0.09131 78.17021000000001 29.3126199999998 16.43277 0 0 0
1614 444 2 0.11527 80.74408999999997 30.87717 21.83347 0 0 0
1662 444 3 -0.09121 81.67655000000003 31.337 22.15862 0 0 0
347 444 2 0.11528 34.19839 38.53557 21.83347 0 0 0
395 444 3 -0.09129 33.33393 39.11319 22.15863 0 0 0
538 444 1 0.9627599999999999 35.23714 43.46512 19.45448 0 0 0
573 444 3 0.60538 34.280090000000015 41.06142 20.89041 0 0 0
585 444 3 -0.03013 33.22330000000001 40.45131 21.75327 0 0 0
630 444 5 -0.54688 35.25788 43.45319 16.11259 0 0 0
633 444 5 -0.54691 35.257870000000025 40.310369996404816 20.55719 0 0 0
634 444 5 -0.5468499999999999 34.11857 42.28375 20.55717 0 0 0
340 444 2 0.11529 36.84028 37.01026 17.51927 0 0 0
346 444 2 0.11528 39.48218 38.53556999999999 21.83348 0 0 0
388 444 3 -0.09125999999999999 36.840279999999986 37.08878 16.43276 0 0 0
394 444 3 -0.09132999999999999 40.346640000000015 39.11318 22.15864 0 0 0
535 444 1 0.96279 36.84029 42.53954999999999 16.83654 0 0 0
536 444 1 0.96274 36.84026999999999 40.688379999999995 19.4545 0 0 0
537 444 1 0.96273 38.44348000000001 43.46515999999999 19.45451 0 0 0
557 444 2 0.11531 41.62879 42.25362 21.83348 0 0 0
569 444 3 0.60541 36.84029000000001 39.58329 16.7096 0 0 0
572 444 3 0.60537 39.40048 41.061409999999896 20.89042 0 0 0
581 444 3 -0.03017 36.84029000000001 38.36301999999999 15.84675 0 0 0
584 444 3 -0.03011 40.457269999999866 40.45129999569936 21.75328 0 0 0
605 444 3 -0.09139 41.5608 41.21616 22.15864 0 0 0
612 444 4 -1.02787 36.84032 42.539559999999994 18.80001 0 0 0
625 444 5 -0.54686 36.84030000000001 40.71234 16.11259 0 0 0
626 444 5 -0.54688 36.8403 39.39675999999999 17.9731 0 0 0
631 444 5 -0.5468499999999999 39.56204000000001 42.283749996404815 20.55719 0 0 0
632 444 5 -0.54687 38.42272 40.310389996404815 20.55719 0 0 0
636 444 5 -0.54688 38.42272 43.45318 16.1126 0 0 0
560 444 2 0.11527 50.47194000000001 42.25363 21.83347 0 0 0
608 444 3 -0.09129 50.53993 41.21618 22.15862 0 0 0
976 444 2 0.11529 55.26044000000003 37.01026 17.51927 0 0 0
983 444 2 0.11528 52.618550000000006 38.53557 21.83347 0 0 0
1024 444 3 -0.09125999999999999 55.26045 37.08878 16.43276 0 0 0
1031 444 3 -0.09129 51.75410000000002 39.11319 22.15863 0 0 0
1171 444 1 0.96279 55.26045000000003 42.53954999999999 16.83654 0 0 0
1172 444 1 0.96274 55.26044000000001 40.688379999999995 19.4545 0 0 0
1173 444 1 0.96273 56.86365000000001 43.46515999999999 19.45451 0 0 0
1174 444 1 0.9627599999999999 53.65731000000001 43.46512 19.45448 0 0 0
1205 444 3 0.60541 55.26046000000002 39.58329 16.7096 0 0 0
1208 444 3 0.60537 57.82065 41.061409999999896 20.89042 0 0 0
1209 444 3 0.60538 52.70026 41.06142 20.89041 0 0 0
1217 444 3 -0.03017 55.260450000000034 38.36301999999999 15.84675 0 0 0
1221 444 3 -0.03013 51.64345999999999 40.45131 21.75327 0 0 0
1248 444 4 -1.02787 55.26048 42.539559999999994 18.80001 0 0 0
1261 444 5 -0.54686 55.26046000000004 40.71234 16.11259 0 0 0
1262 444 5 -0.54688 55.260459999999995 39.39675999999999 17.9731 0 0 0
1266 444 5 -0.54688 53.67804000000001 43.45319 16.11259 0 0 0
1268 444 5 -0.54687 56.84288000000001 40.310389996404815 20.55719 0 0 0
1269 444 5 -0.54691 53.67804000003403 40.310369996404816 20.55719 0 0 0
1270 444 5 -0.5468499999999999 52.53873 42.28375 20.55717 0 0 0
1272 444 5 -0.54688 56.84289 43.45318 16.1126 0 0 0
982 444 2 0.11528 57.90235000000001 38.53556999999999 21.83348 0 0 0
1030 444 3 -0.09132999999999999 58.76681000000002 39.11318 22.15864 0 0 0
1193 444 2 0.11531 60.048959999999994 42.25362 21.83348 0 0 0
1220 444 3 -0.03011 58.87743000000003 40.45129999569936 21.75328 0 0 0
1241 444 3 -0.09139 59.980970000000006 41.21616 22.15864 0 0 0
1267 444 5 -0.5468499999999999 57.98220000000005 42.283749996404815 20.55719 0 0 0
1196 444 2 0.11527 68.8921 42.25363 21.83347 0 0 0
1244 444 3 -0.09129 68.9601 41.21618 22.15862 0 0 0
1619 444 2 0.11528 71.03872 38.53557 21.83347 0 0 0
1667 444 3 -0.09129 70.17426 39.11319 22.15863 0 0 0
1810 444 1 0.9627599999999999 72.07747 43.46512 19.45448 0 0 0
1845 444 3 0.60538 71.12042000000011 41.06142 20.89041 0 0 0
1857 444 3 -0.03013 70.06363 40.45131 21.75327 0 0 0
1902 444 5 -0.54688 72.09821000000001 43.45319 16.11259 0 0 0
1905 444 5 -0.54691 72.09821000000012 40.310369996404816 20.55719 0 0 0
1906 444 5 -0.5468499999999999 70.9589 42.28375 20.55717 0 0 0
1612 444 2 0.11529 73.68061000000004 37.01026 17.51927 0 0 0
1618 444 2 0.11528 76.32251 38.53556999999999 21.83348 0 0 0
1660 444 3 -0.09125999999999999 73.68062 37.08878 16.43276 0 0 0
1666 444 3 -0.09132999999999999 77.18698000000002 39.11318 22.15864 0 0 0
1807 444 1 0.96279 73.68062000000002 42.53954999999999 16.83654 0 0 0
1808 444 1 0.96274 73.68061000000007 40.688379999999995 19.4545 0 0 0
1809 444 1 0.96273 75.28381000000002 43.46515999999999 19.45451 0 0 0
1829 444 2 0.11531 78.46912 42.25362 21.83348 0 0 0
1841 444 3 0.60541 73.68062000000006 39.58329 16.7096 0 0 0
1844 444 3 0.60537 76.24081000000004 41.061409999999896 20.89042 0 0 0
1853 444 3 -0.03017 73.68062 38.36301999999999 15.84675 0 0 0
1856 444 3 -0.03011 77.29760000000002 40.45129999569936 21.75328 0 0 0
1877 444 3 -0.09139 78.40114000000001 41.21616 22.15864 0 0 0
1884 444 4 -1.02787 73.68065 42.539559999999994 18.80001 0 0 0
1897 444 5 -0.54686 73.68063 40.71234 16.11259 0 0 0
1898 444 5 -0.54688 73.68062999999998 39.39675999999999 17.9731 0 0 0
1903 444 5 -0.5468499999999999 76.40237000000008 42.283749996404815 20.55719 0 0 0
1904 444 5 -0.54687 75.26305000000126 40.310389996404815 20.55719 0 0 0
1908 444 5 -0.54688 75.26305 43.45318 16.1126 0 0 0
1832 444 2 0.11527 87.31227 42.25363 21.83347 0 0 0
1880 444 3 -0.09129 87.38027 41.21618 22.15862 0 0 0
571 444 3 0.60534 34.28009 44.0177 16.7096 0 0 0
583 444 3 -0.03021 33.223309999999984 44.627839999999544 15.84676 0 0 0
628 444 5 -0.5468499999999999 35.70097 45.02455 20.55716 0 0 0
629 444 5 -0.54682 34.11855999999999 44.110959999999615 17.97311 0 0 0
544 444 2 0.11525 43.408469999999994 46.331719996404814 16.06617 0 0 0
553 444 2 0.11527 38.9869 46.829519999999995 21.83346 0 0 0
561 444 2 0.11531 41.628800000000005 45.30423 17.51927 0 0 0
570 444 3 0.60537 36.84026000000001 45.49583 20.89041 0 0 0
574 444 3 0.60545 39.40049 44.0177 16.70959 0 0 0
582 444 3 -0.03019 36.84027999999999 46.71608999999991 21.75327 0 0 0
586 444 3 -0.03018 40.45728 44.627849999999995 15.84676 0 0 0
592 444 3 -0.09125999999999999 42.54401 45.83263 15.62998 0 0 0
601 444 3 -0.0912 38.054429999999996 47.289349996404816 22.15861 0 0 0
609 444 3 -0.09137000000000001 41.5608 45.26497 16.43275 0 0 0
627 444 5 -0.54686 37.979620000000004 45.024559999999994 20.55717 0 0 0
635 444 5 -0.54686 39.56203 44.11097 17.97311 0 0 0
539 444 2 0.11527 46.050349999999995 50.907609999999316 16.06617 0 0 0
550 444 2 0.11529 48.69226000000002 46.33171 16.06618 0 0 0
555 444 2 0.11527 50.47193999999996 45.30421999607872 17.51928 0 0 0
598 444 3 -0.09125 49.55673000002071 45.832619996404816 15.62999 0 0 0
603 444 3 -0.09131 50.53994 45.264959999999995 16.43277 0 0 0
554 444 2 0.11527 53.11382000000001 46.82951 21.83347 0 0 0
602 444 3 -0.09121 54.046279999999996 47.28934 22.15862 0 0 0
1189 444 2 0.11527 57.40706 46.829519999999995 21.83346 0 0 0
1206 444 3 0.60537 55.26042 45.49583 20.89041 0 0 0
1207 444 3 0.60534 52.70026 44.0177 16.7096 0 0 0
1210 444 3 0.60545 57.82065 44.0177 16.70959 0 0 0
1218 444 3 -0.03019 55.26044 46.71608999999991 21.75327 0 0 0
1219 444 3 -0.03021 51.64348000000002 44.627839999999544 15.84676 0 0 0
1237 444 3 -0.0912 56.47460000000005 47.289349996404816 22.15861 0 0 0
1263 444 5 -0.54686 56.39978000000002 45.024559999999994 20.55717 0 0 0
1264 444 5 -0.5468499999999999 54.12113000000001 45.02455 20.55716 0 0 0
1265 444 5 -0.54682 52.53873000000001 44.110959999999615 17.97311 0 0 0
1175 444 2 0.11527 64.47052000000002 50.907609999999316 16.06617 0 0 0
1180 444 2 0.11525 61.82864000000001 46.331719996404814 16.06617 0 0 0
1197 444 2 0.11531 60.04897000000007 45.30423 17.51927 0 0 0
1222 444 3 -0.03018 58.87745 44.627849999999995 15.84676 0 0 0
1228 444 3 -0.09125999999999999 60.96418 45.83263 15.62998 0 0 0
1245 444 3 -0.09137000000000001 59.98097 45.26497 16.43275 0 0 0
1271 444 5 -0.54686 57.9822 44.11097 17.97311 0 0 0
1186 444 2 0.11529 67.11243000000005 46.33171 16.06618 0 0 0
1190 444 2 0.11527 71.53399 46.82951 21.83347 0 0 0
1191 444 2 0.11527 68.89210999994889 45.30421999607872 17.51928 0 0 0
1234 444 3 -0.09125 67.97689000000001 45.832619996404816 15.62999 0 0 0
1239 444 3 -0.09131 68.96011 45.264959999999995 16.43277 0 0 0
1843 444 3 0.60534 71.12043 44.0177 16.7096 0 0 0
1855 444 3 -0.03021 70.06363999999998 44.627839999999544 15.84676 0 0 0
1901 444 5 -0.54682 70.95889 44.110959999999615 17.97311 0 0 0
1238 444 3 -0.09121 72.46645 47.28934 22.15862 0 0 0
1825 444 2 0.11527 75.82723000000004 46.829519999999995 21.83346 0 0 0
1833 444 2 0.11531 78.46913 45.30423 17.51927 0 0 0
1842 444 3 0.60537 73.68059000000002 45.49583 20.89041 0 0 0
1846 444 3 0.60545 76.24082000000001 44.0177 16.70959 0 0 0
1854 444 3 -0.03019 73.68061000000002 46.71608999999991 21.75327 0 0 0
1858 444 3 -0.03018 77.29761999999998 44.627849999999995 15.84676 0 0 0
1864 444 3 -0.09125999999999999 79.38435000000001 45.83263 15.62998 0 0 0
1873 444 3 -0.0912 74.89476000000009 47.289349996404816 22.15861 0 0 0
1881 444 3 -0.09137000000000001 78.40113000000001 45.26497 16.43275 0 0 0
1899 444 5 -0.54686 74.81995000000002 45.024559999999994 20.55717 0 0 0
1900 444 5 -0.5468499999999999 72.54130000000002 45.02455 20.55716 0 0 0
1907 444 5 -0.54686 76.40236999999999 44.11097 17.97311 0 0 0
1811 444 2 0.11527 82.89069000000005 50.907609999999316 16.06617 0 0 0
1816 444 2 0.11525 80.24880000000014 46.331719996404814 16.06617 0 0 0
1822 444 2 0.11529 85.53260000000002 46.33171 16.06618 0 0 0
1870 444 3 -0.09125 86.39706000096933 45.832619996404816 15.62999 0 0 0
1826 444 2 0.11527 89.95415999999999 46.82951 21.83347 0 0 0
1827 444 2 0.11527 87.31226999896283 45.30421999607872 17.51928 0 0 0
1874 444 3 -0.09121 90.88661000000002 47.28934 22.15862 0 0 0
1875 444 3 -0.09131 87.38027 45.264959999999995 16.43277 0 0 0
559 444 2 0.11528 43.408450000000016 54.48790999999999 21.83347 0 0 0
607 444 3 -0.09129 42.544 55.065529999999995 22.15863 0 0 0
552 444 2 0.11529 46.05033999999999 52.96259999999999 17.51927 0 0 0
558 444 2 0.11528 48.692250000000016 54.48790999999999 21.83348 0 0 0
587 444 3 -0.09130000000000001 46.05033999999999 51.905809999999995 15.62998 0 0 0
600 444 3 -0.09125999999999999 46.05035 53.04111 16.43276 0 0 0
606 444 3 -0.09132999999999999 49.55671000000001 55.06552000000001 22.15864 0 0 0
1188 444 2 0.11529 64.47051 52.96259999999999 17.51927 0 0 0
1195 444 2 0.11528 61.828619999999994 54.48790999999999 21.83347 0 0 0
1223 444 3 -0.09130000000000001 64.47051000000002 51.905809999999995 15.62998 0 0 0
1236 444 3 -0.09125999999999999 64.47052000000001 53.04111 16.43276 0 0 0
1243 444 3 -0.09129 60.96416 55.065529999999995 22.15863 0 0 0
1194 444 2 0.11528 67.11241000000004 54.48790999999999 21.83348 0 0 0
1242 444 3 -0.09132999999999999 67.97688 55.06552000000001 22.15864 0 0 0
1879 444 3 -0.09129 79.38433 55.065529999999995 22.15863 0 0 0
1824 444 2 0.11529 82.89068000000006 52.96259999999999 17.51927 0 0 0
1830 444 2 0.11528 85.53258 54.48790999999999 21.83348 0 0 0
1831 444 2 0.11528 80.24879 54.48790999999999 21.83347 0 0 0
1859 444 3 -0.09130000000000001 82.89068 51.905809999999995 15.62998 0 0 0
1872 444 3 -0.09125999999999999 82.89068 53.04111 16.43276 0 0 0
1878 444 3 -0.09132999999999999 86.39704000000002 55.06552000000001 22.15864 0 0 0
1930 452 6 0.7 18.157622950870383 9.146507536822552 24.276210779507124 1 2 -4
1931 452 7 -0.35 18.12205946112104 10.297591080898911 24.140508546483606 1 2 -4
1932 452 7 -0.35 46.20993671047253 56.14988952515742 23.613746913132484 1 1 -4
1924 450 6 0.7 23.97199759745387 14.229038251146173 29.652078111137808 1 0 -1
116 444 2 0.11525 27.63023000000002 10.846739999066969 27.60076 0 0 0
123 444 2 0.11528 24.98834 9.321449999999999 23.28658 0 0 0
127 444 2 0.11528 27.630229999999994 12.90173999999999 29.05386 0 0 0
164 444 3 -0.09125 27.6302199987777 10.768229999101205 28.68726 0 0 0
171 444 3 -0.09125 24.12388 8.74384 22.96142 0 0 0
175 444 3 -0.09132999999999999 27.63021000000002 11.90354 29.49005 0 0 0
1943 456 7 -0.35 25.125785173098862 13.83631018681353 27.30844501791546 1 0 0
122 444 2 0.11528 30.272129999999994 9.32146 23.28657 0 0 0
170 444 3 -0.09125999999999999 31.136599999999973 8.743849999999998 22.96141 0 0 0
759 444 2 0.11528 43.40850999999999 9.321449999999999 23.28658 0 0 0
807 444 3 -0.09125 42.54404 8.74384 22.96142 0 0 0
752 444 2 0.11525 46.05038999999999 10.846739999066969 27.60076 0 0 0
758 444 2 0.11528 48.69229 9.32146 23.28657 0 0 0
763 444 2 0.11528 46.050389999999986 12.90173999999999 29.05386 0 0 0
800 444 3 -0.09125 46.05038999999998 10.768229999101205 28.68726 0 0 0
806 444 3 -0.09125999999999999 49.55677 8.743849999999998 22.96141 0 0 0
811 444 3 -0.09132999999999999 46.05037999999999 11.90354 29.49005 0 0 0
1388 444 2 0.11525 64.47055999999998 10.846739999066969 27.60076 0 0 0
1395 444 2 0.11528 61.828669999999995 9.321449999999999 23.28658 0 0 0
1399 444 2 0.11528 64.47056 12.90173999999999 29.05386 0 0 0
1436 444 3 -0.09125 64.47054999999995 10.768229999101205 28.68726 0 0 0
1443 444 3 -0.09125 60.96421 8.74384 22.96142 0 0 0
1447 444 3 -0.09132999999999999 64.47055 11.90354 29.49005 0 0 0
1965 463 7 -0.35 70.70224448249509 11.334797245169701 23.772082471686282 1 0 0
1964 463 7 -0.35 71.67457632362704 13.260644599241857 24.62199351704783 1 0 0
1963 463 6 0.7 71.19793791354472 12.277691199643286 24.2316534676612 1 0 0
1394 444 2 0.11528 67.11246 9.32146 23.28657 0 0 0
1442 444 3 -0.09125999999999999 67.97693 8.743849999999998 22.96141 0 0 0
1953 459 7 -0.35 73.56897136611737 13.532645933526112 27.74433707158332 -1 2 -1
117 444 2 0.1153 20.566759999999995 16.979819999999997 23.28656 0 0 0
165 444 3 -0.09134 19.634299999999996 16.519979999999997 22.9614 0 0 0
1939 455 6 0.7 21.515484057981396 16.545675320327135 26.520487033599917 0 1 2
1942 456 6 0.7 25.18496253654097 14.800293069510694 26.670869094781718 1 0 0
1944 456 7 -0.35 25.673052537367262 15.238451176179936 27.62689387910341 1 0 0
1941 455 7 -0.35 22.149429352390978 17.17304860611506 25.774476842670335 0 1 2
121 444 2 0.11529 23.20865 21.55574 23.28657 0 0 0
125 444 2 0.11528 23.20866 18.50514 27.60078 0 0 0
132 444 2 0.11525 24.988340000000004 17.47764 29.05387 0 0 0
173 444 3 -0.09130000000000001 23.14066 18.54439 28.68728 0 0 0
180 444 3 -0.0912 24.123869999999997 17.976739999999992 29.49006 0 0 0
1940 455 7 -0.35 22.645527395980494 16.281899117415612 26.510099713867447 0 1 2
110 444 1 0.96279 35.23712999999999 20.34416999999999 25.66552 0 0 0
118 444 2 0.11533 34.69368 16.979819999999997 23.28656 0 0 0
119 444 2 0.11527 32.0518 18.50515 27.60076 0 0 0
124 444 2 0.11527 32.05179 21.555729999999997 23.28658 0 0 0
138 444 2 0.11528 30.272129999999994 17.477649999999997 29.05386 0 0 0
141 444 3 0.6054 34.28012 19.791669999999996 28.41044 0 0 0
153 444 3 -0.03019 33.22332 19.18153 29.27327 0 0 0
166 444 3 -0.09141000000000001 35.626160000000006 16.519979999999997 22.9614 0 0 0
167 444 3 -0.09128 32.11981 18.54441 28.68728 0 0 0
186 444 3 -0.09125 31.136590000000005 17.97675 29.49005 0 0 0
192 444 5 -0.54696 35.70096 18.78477 24.56285 0 0 0
193 444 5 -0.54689 34.118579999999994 19.698389999999982 27.14692 0 0 0
194 444 5 -0.54692 35.25789 20.356179999999988 29.00743 0 0 0
198 444 5 -0.5468499999999999 34.11858 21.52559 24.56286 0 0 0
107 444 1 0.96283 36.84032 21.26979 28.28349 0 0 0
109 444 1 0.9628 38.44348000000001 20.344199999999987 25.66554 0 0 0
140 444 3 0.60546 36.84033000000001 18.313509999999994 24.22961 0 0 0
144 444 3 0.60539 39.40051000000001 19.79164 28.41043 0 0 0
152 444 3 -0.03019 36.840289999999996 17.09324 23.36675 0 0 0
156 444 3 -0.03016 40.45729 19.181509999999996 29.27329 0 0 0
187 444 4 -1.02796 36.8403 21.26977999999999 26.32002 0 0 0
191 444 5 -0.54688 37.9796 18.78477 24.56285 0 0 0
195 444 5 -0.5469000000000001 39.56202999999999 21.52561 24.56285 0 0 0
199 444 5 -0.54688 39.56204 19.69838 27.14694 0 0 0
200 444 5 -0.5469000000000001 38.42272 20.35618 29.00745 0 0 0
753 444 2 0.1153 38.986920000000005 16.979819999999997 23.28656 0 0 0
757 444 2 0.11529 41.62881 21.55574 23.28657 0 0 0
761 444 2 0.11528 41.62882 18.50514 27.60078 0 0 0
768 444 2 0.11525 43.4085 17.47764 29.05387 0 0 0
801 444 3 -0.09134 38.05447 16.519979999999997 22.9614 0 0 0
809 444 3 -0.09130000000000001 41.560829999999996 18.54439 28.68728 0 0 0
816 444 3 -0.0912 42.544039999999995 17.976739999999992 29.49006 0 0 0
755 444 2 0.11527 50.47197 18.50515 27.60076 0 0 0
760 444 2 0.11527 50.47194999999999 21.555729999999997 23.28658 0 0 0
774 444 2 0.11528 48.69229 17.477649999999997 29.05386 0 0 0
803 444 3 -0.09128 50.53998 18.54441 28.68728 0 0 0
822 444 3 -0.09125 49.55676 17.97675 29.49005 0 0 0
743 444 1 0.96283 55.26049000000001 21.26979 28.28349 0 0 0
745 444 1 0.9628 56.863640000000004 20.344199999999987 25.66554 0 0 0
746 444 1 0.96279 53.65729999999999 20.34416999999999 25.66552 0 0 0
754 444 2 0.11533 53.11385 16.979819999999997 23.28656 0 0 0
776 444 3 0.60546 55.260500000000015 18.313509999999994 24.22961 0 0 0
777 444 3 0.6054 52.70028 19.791669999999996 28.41044 0 0 0
780 444 3 0.60539 57.82068000000004 19.79164 28.41043 0 0 0
788 444 3 -0.03019 55.260459999999995 17.09324 23.36675 0 0 0
789 444 3 -0.03019 51.64349 19.18153 29.27327 0 0 0
802 444 3 -0.09141000000000001 54.04632000000001 16.519979999999997 22.9614 0 0 0
823 444 4 -1.02796 55.26047000000001 21.26977999999999 26.32002 0 0 0
827 444 5 -0.54688 56.399770000000004 18.78477 24.56285 0 0 0
828 444 5 -0.54696 54.12113000000001 18.78477 24.56285 0 0 0
829 444 5 -0.54689 52.538739999999976 19.698389999999982 27.14692 0 0 0
830 444 5 -0.54692 53.67805000000001 20.356179999999988 29.00743 0 0 0
834 444 5 -0.5468499999999999 52.53874 21.52559 24.56286 0 0 0
836 444 5 -0.5469000000000001 56.84288000000001 20.35618 29.00745 0 0 0
1389 444 2 0.1153 57.40709 16.979819999999997 23.28656 0 0 0
1437 444 3 -0.09134 56.474640000000015 16.519979999999997 22.9614 0 0 0
792 444 3 -0.03016 58.87746 19.181509999999996 29.27329 0 0 0
831 444 5 -0.5469000000000001 57.98219999999999 21.52561 24.56285 0 0 0
835 444 5 -0.54688 57.9822 19.69838 27.14694 0 0 0
1393 444 2 0.11529 60.04898 21.55574 23.28657 0 0 0
1397 444 2 0.11528 60.04899 18.50514 27.60078 0 0 0
1404 444 2 0.11525 61.82867 17.47764 29.05387 0 0 0
1445 444 3 -0.09130000000000001 59.98098999999999 18.54439 28.68728 0 0 0
1452 444 3 -0.0912 60.96421000000002 17.976739999999992 29.49006 0 0 0
1382 444 1 0.96279 72.07746 20.34416999999999 25.66552 0 0 0
1390 444 2 0.11533 71.53401 16.979819999999997 23.28656 0 0 0
1391 444 2 0.11527 68.89213 18.50515 27.60076 0 0 0
1396 444 2 0.11527 68.89212 21.555729999999997 23.28658 0 0 0
1410 444 2 0.11528 67.11246 17.477649999999997 29.05386 0 0 0
1413 444 3 0.6054 71.12045 19.791669999999996 28.41044 0 0 0
1425 444 3 -0.03019 70.06366 19.18153 29.27327 0 0 0
1439 444 3 -0.09128 68.96014 18.54441 28.68728 0 0 0
1458 444 3 -0.09125 67.97693 17.97675 29.49005 0 0 0
1465 444 5 -0.54689 70.95890999999999 19.698389999999982 27.14692 0 0 0
1466 444 5 -0.54692 72.09822000000001 20.356179999999988 29.00743 0 0 0
1470 444 5 -0.5468499999999999 70.95891 21.52559 24.56286 0 0 0
1920 448 7 -0.35 75.29430968569649 16.079791348684395 29.2875538598215 0 1 -1
1919 448 7 -0.35 20.62669892904321 15.22225800420979 28.876765891476804 1 1 -1
1918 448 6 0.7 76.12144281393552 15.604047596540314 29.94597004277135 0 1 -1
1952 459 7 -0.35 73.00144976518908 15.760911028115096 27.452368831153862 -1 2 -1
1951 459 6 0.7 73.33331068435707 14.656808007945667 27.583767961765478 -1 2 -1
1379 444 1 0.96283 73.68065000000001 21.26979 28.28349 0 0 0
1381 444 1 0.9628 75.28380999999999 20.344199999999987 25.66554 0 0 0
1412 444 3 0.60546 73.68067000000002 18.313509999999994 24.22961 0 0 0
1416 444 3 0.60539 76.24085 19.79164 28.41043 0 0 0
1424 444 3 -0.03019 73.68062 17.09324 23.36675 0 0 0
1428 444 3 -0.03016 77.29762 19.181509999999996 29.27329 0 0 0
1438 444 3 -0.09141000000000001 72.46649 16.519979999999997 22.9614 0 0 0
1459 444 4 -1.02796 73.68062999999998 21.26977999999999 26.32002 0 0 0
1463 444 5 -0.54688 74.81994 18.78477 24.56285 0 0 0
1464 444 5 -0.54696 72.5413 18.78477 24.56285 0 0 0
1467 444 5 -0.5469000000000001 76.40236 21.52561 24.56285 0 0 0
1471 444 5 -0.54688 76.40237000000005 19.69838 27.14694 0 0 0
1472 444 5 -0.5469000000000001 75.26305 20.35618 29.00745 0 0 0
169 444 3 -0.09128 23.140649999999997 22.593199999999996 22.96141 0 0 0
143 444 3 0.60531 34.28010999999999 22.747949999999996 24.22963 0 0 0
155 444 3 -0.03015 33.22331 23.35805 23.36678 0 0 0
172 444 3 -0.09123000000000001 32.11979 22.593179999999997 22.96143 0 0 0
197 444 5 -0.54687 35.25787 23.49897 24.56287 0 0 0
335 444 2 0.11528 34.19841 25.27378999999999 23.28658 0 0 0
383 444 3 -0.09125 33.33394 24.69618 22.96142 0 0 0
108 444 1 0.96284 36.84031000000001 23.120969999999993 25.66554 0 0 0
139 444 3 0.60538 36.84029000000001 24.226059999999983 28.41042 0 0 0
142 444 3 0.6054 39.4005 22.747919999999993 24.22961 0 0 0
151 444 3 -0.03012 36.84028 25.44632 29.27328 0 0 0
154 444 3 -0.03015 40.45729 23.35806 23.36676 0 0 0
189 444 5 -0.54688 36.84029 23.096999999999998 29.00744 0 0 0
190 444 5 -0.54688 36.84029000000001 24.412579999999995 27.14694 0 0 0
196 444 5 -0.54689 38.422709999999995 23.49897 24.56285 0 0 0
328 444 2 0.11525 36.84029000000001 26.799079999999996 27.60076 0 0 0
334 444 2 0.11528 39.48219 25.273799999999994 23.28657 0 0 0
339 444 2 0.11528 36.84029 28.854079999999982 29.05386 0 0 0
376 444 3 -0.09125 36.84029 26.720569999999995 28.68726 0 0 0
382 444 3 -0.09125999999999999 40.34667 24.69619 22.96141 0 0 0
387 444 3 -0.09132999999999999 36.84028 27.85588 29.49005 0 0 0
805 444 3 -0.09128 41.56082000000001 22.593199999999996 22.96141 0 0 0
808 444 3 -0.09123000000000001 50.53996000000001 22.593179999999997 22.96143 0 0 0
744 444 1 0.96284 55.26048 23.120969999999993 25.66554 0 0 0
775 444 3 0.60538 55.260450000000006 24.226059999999983 28.41042 0 0 0
778 444 3 0.6054 57.82067000000001 22.747919999999993 24.22961 0 0 0
779 444 3 0.60531 52.70027 22.747949999999996 24.22963 0 0 0
787 444 3 -0.03012 55.26044 25.44632 29.27328 0 0 0
791 444 3 -0.03015 51.64348 23.35805 23.36678 0 0 0
825 444 5 -0.54688 55.26045 23.096999999999998 29.00744 0 0 0
826 444 5 -0.54688 55.260460000000045 24.412579999999995 27.14694 0 0 0
832 444 5 -0.54689 56.84288 23.49897 24.56285 0 0 0
833 444 5 -0.54687 53.67804000000001 23.49897 24.56287 0 0 0
964 444 2 0.11525 55.26046 26.799079999999996 27.60076 0 0 0
971 444 2 0.11528 52.61856999999999 25.27378999999999 23.28658 0 0 0
975 444 2 0.11528 55.26045999999999 28.854079999999982 29.05386 0 0 0
1012 444 3 -0.09125 55.26045 26.720569999999995 28.68726 0 0 0
1019 444 3 -0.09125 51.75411 24.69618 22.96142 0 0 0
1023 444 3 -0.09132999999999999 55.26045000000003 27.85588 29.49005 0 0 0
790 444 3 -0.03015 58.877449999999996 23.35806 23.36676 0 0 0
970 444 2 0.11528 57.90236 25.273799999999994 23.28657 0 0 0
1018 444 3 -0.09125999999999999 58.766840000000045 24.69619 22.96141 0 0 0
1441 444 3 -0.09128 59.98098 22.593199999999996 22.96141 0 0 0
1415 444 3 0.60531 71.12044000000013 22.747949999999996 24.22963 0 0 0
1427 444 3 -0.03015 70.06363999999998 23.35805 23.36678 0 0 0
1444 444 3 -0.09123000000000001 68.96012000000002 22.593179999999997 22.96143 0 0 0
1469 444 5 -0.54687 72.09820000000006 23.49897 24.56287 0 0 0
1607 444 2 0.11528 71.03873999999998 25.27378999999999 23.28658 0 0 0
1655 444 3 -0.09125 70.17428000000001 24.69618 22.96142 0 0 0
1380 444 1 0.96284 73.68063999999998 23.120969999999993 25.66554 0 0 0
1411 444 3 0.60538 73.68062000000003 24.226059999999983 28.41042 0 0 0
1414 444 3 0.6054 76.24083000000002 22.747919999999993 24.22961 0 0 0
1423 444 3 -0.03012 73.68061 25.44632 29.27328 0 0 0
1426 444 3 -0.03015 77.29762 23.35806 23.36676 0 0 0
1461 444 5 -0.54688 73.68062 23.096999999999998 29.00744 0 0 0
1462 444 5 -0.54688 73.68062000000008 24.412579999999995 27.14694 0 0 0
1468 444 5 -0.54689 75.26304000000002 23.49897 24.56285 0 0 0
1600 444 2 0.11525 73.68063 26.799079999999996 27.60076 0 0 0
1606 444 2 0.11528 76.32251999999998 25.273799999999994 23.28657 0 0 0
1611 444 2 0.11528 73.68062999999998 28.854079999999982 29.05386 0 0 0
1648 444 3 -0.09125 73.68062 26.720569999999995 28.68726 0 0 0
1654 444 3 -0.09125999999999999 77.18700000000003 24.69619 22.96141 0 0 0
1659 444 3 -0.09132999999999999 73.68061000000003 27.85588 29.49005 0 0 0
377 444 3 -0.09134 28.84437 32.472319999999996 22.9614 0 0 0
329 444 2 0.1153 29.77682 32.93216 23.28656 0 0 0
337 444 2 0.11528 32.41871999999999 34.45747999999999 27.60078 0 0 0
344 444 2 0.11525 34.1984 33.42998 29.05387 0 0 0
385 444 3 -0.09130000000000001 32.35073 34.49673 28.68728 0 0 0
392 444 3 -0.0912 33.33394 33.929069999999996 29.49006 0 0 0
331 444 2 0.11527 41.26187 34.45748999999999 27.60076 0 0 0
350 444 2 0.11528 39.48219 33.42998999999999 29.05386 0 0 0
365 444 3 -0.03019 42.43339 35.133869999999995 29.27327 0 0 0
379 444 3 -0.09128 41.32988 34.49674999999999 28.68728 0 0 0
398 444 3 -0.09125 40.34666 33.929089999999995 29.49005 0 0 0
405 444 5 -0.54689 43.32864000000001 35.65072999999998 27.14692 0 0 0
321 444 1 0.9628 47.653540000000014 36.296539999999986 25.66554 0 0 0
322 444 1 0.96279 44.44720000000001 36.29651 25.66552 0 0 0
330 444 2 0.11533 43.90375 32.93216 23.28656 0 0 0
352 444 3 0.60546 46.050399999999996 34.26584999999999 24.22961 0 0 0
353 444 3 0.6054 43.49019000000001 35.74401 28.41044 0 0 0
356 444 3 0.60539 48.61058 35.74398 28.41043 0 0 0
364 444 3 -0.03019 46.05036 33.04558 23.36675 0 0 0
368 444 3 -0.03016 49.66736 35.133849999999995 29.27329 0 0 0
378 444 3 -0.09141000000000001 44.83623000000002 32.472319999999996 22.9614 0 0 0
403 444 5 -0.54688 47.18967 34.737109999999994 24.56285 0 0 0
404 444 5 -0.54696 44.91103 34.737109999999994 24.56285 0 0 0
406 444 5 -0.54692 44.46795 36.30851999999999 29.00743 0 0 0
411 444 5 -0.54688 48.7721 35.65072 27.14694 0 0 0
412 444 5 -0.5469000000000001 47.63278 36.30852 29.00745 0 0 0
965 444 2 0.1153 48.19699 32.93216 23.28656 0 0 0
1013 444 3 -0.09134 47.26454 32.472319999999996 22.9614 0 0 0
973 444 2 0.11528 50.83888999999999 34.45747999999999 27.60078 0 0 0
980 444 2 0.11525 52.61857 33.42998 29.05387 0 0 0
1021 444 3 -0.09130000000000001 50.77089 34.49673 28.68728 0 0 0
1028 444 3 -0.0912 51.75411 33.929069999999996 29.49006 0 0 0
958 444 1 0.96279 62.867360000000005 36.29651 25.66552 0 0 0
966 444 2 0.11533 62.323910000000005 32.93216 23.28656 0 0 0
967 444 2 0.11527 59.68203000000002 34.45748999999999 27.60076 0 0 0
986 444 2 0.11528 57.90236000000001 33.42998999999999 29.05386 0 0 0
988 444 3 0.60546 64.47057 34.26584999999999 24.22961 0 0 0
989 444 3 0.6054 61.91035000000002 35.74401 28.41044 0 0 0
1000 444 3 -0.03019 64.47052 33.04558 23.36675 0 0 0
1001 444 3 -0.03019 60.85356 35.133869999999995 29.27327 0 0 0
1014 444 3 -0.09141000000000001 63.25639000620848 32.472319999999996 22.9614 0 0 0
1015 444 3 -0.09128 59.75003999999999 34.49674999999999 28.68728 0 0 0
1034 444 3 -0.09125 58.766830000000006 33.929089999999995 29.49005 0 0 0
1040 444 5 -0.54696 63.33120000000001 34.737109999999994 24.56285 0 0 0
1041 444 5 -0.54689 61.748810000000006 35.65072999999998 27.14692 0 0 0
1042 444 5 -0.54692 62.888120000000015 36.30851999999999 29.00743 0 0 0
957 444 1 0.9628 66.07370999999999 36.296539999999986 25.66554 0 0 0
992 444 3 0.60539 67.03075 35.74398 28.41043 0 0 0
1004 444 3 -0.03016 68.08753000000002 35.133849999999995 29.27329 0 0 0
1039 444 5 -0.54688 65.60983999999999 34.737109999999994 24.56285 0 0 0
1047 444 5 -0.54688 67.19227000000001 35.65072 27.14694 0 0 0
1048 444 5 -0.5469000000000001 66.05295 36.30852 29.00745 0 0 0
1601 444 2 0.1153 66.61716 32.93216 23.28656 0 0 0
1609 444 2 0.11528 69.25906 34.45747999999999 27.60078 0 0 0
1616 444 2 0.11525 71.03873999999999 33.42998 29.05387 0 0 0
1649 444 3 -0.09134 65.68469999999999 32.472319999999996 22.9614 0 0 0
1657 444 3 -0.09130000000000001 69.19106 34.49673 28.68728 0 0 0
1664 444 3 -0.0912 70.17427 33.929069999999996 29.49006 0 0 0
1603 444 2 0.11527 78.1022 34.45748999999999 27.60076 0 0 0
1622 444 2 0.11528 76.32253 33.42998999999999 29.05386 0 0 0
1637 444 3 -0.03019 79.27372 35.133869999999995 29.27327 0 0 0
1651 444 3 -0.09128 78.17021 34.49674999999999 28.68728 0 0 0
1670 444 3 -0.09125 77.18699000000001 33.929089999999995 29.49005 0 0 0
1593 444 1 0.9628 84.49388000000002 36.296539999999986 25.66554 0 0 0
1594 444 1 0.96279 81.28753000000003 36.29651 25.66552 0 0 0
1602 444 2 0.11533 80.74407999999998 32.93216 23.28656 0 0 0
1624 444 3 0.60546 82.89073 34.26584999999999 24.22961 0 0 0
1625 444 3 0.6054 80.33052 35.74401 28.41044 0 0 0
1628 444 3 0.60539 85.45091000000005 35.74398 28.41043 0 0 0
1636 444 3 -0.03019 82.89069 33.04558 23.36675 0 0 0
1640 444 3 -0.03016 86.50769 35.133849999999995 29.27329 0 0 0
1650 444 3 -0.09141000000000001 81.67655999999998 32.472319999999996 22.9614 0 0 0
1675 444 5 -0.54688 84.03 34.737109999999994 24.56285 0 0 0
1676 444 5 -0.54696 81.75136 34.737109999999994 24.56285 0 0 0
1677 444 5 -0.54689 80.16898 35.65072999999998 27.14692 0 0 0
1678 444 5 -0.54692 81.30829 36.30851999999999 29.00743 0 0 0
1683 444 5 -0.54688 85.61244000000003 35.65072 27.14694 0 0 0
1684 444 5 -0.5469000000000001 84.47312 36.30852 29.00745 0 0 0
333 444 2 0.11529 32.41870999999999 37.50806999999999 23.28657 0 0 0
381 444 3 -0.09128 32.35072000000001 38.54554 22.96141 0 0 0
1950 458 7 -0.35 43.077812547189694 41.07498335358183 27.384518110318457 -1 1 -1
336 444 2 0.11527 41.26185 37.50807 23.28658 0 0 0
367 444 3 -0.03015 42.43338 39.31039 23.36678 0 0 0
384 444 3 -0.09123000000000001 41.32986 38.54552 22.96143 0 0 0
410 444 5 -0.5468499999999999 43.32863999999999 37.477929999999986 24.56286 0 0 0
547 444 2 0.11528 43.408469999999994 41.226119999999995 23.28658 0 0 0
595 444 3 -0.09125 42.54401 40.64852 22.96142 0 0 0
1948 458 6 0.7 43.82296990572454 41.557247296719744 26.63816495154323 -1 1 -1
1949 458 7 -0.35 43.94668837439653 42.43920669410332 25.895553909264812 -1 1 -1
319 444 1 0.96283 46.05039 37.22213 28.28349 0 0 0
320 444 1 0.96284 46.05037999999999 39.073299999999996 25.66554 0 0 0
351 444 3 0.60538 46.05036 40.178399999999996 28.41042 0 0 0
354 444 3 0.6054 48.61057 38.70026 24.22961 0 0 0
355 444 3 0.60531 43.49016999999999 38.700289999999995 24.22963 0 0 0
363 444 3 -0.03012 46.05034 41.39865999999999 29.27328 0 0 0
366 444 3 -0.03015 49.66735 39.3104 23.36676 0 0 0
399 444 4 -1.02796 46.05037 37.22211999999999 26.32002 0 0 0
401 444 5 -0.54688 46.05035 39.04933999999999 29.00744 0 0 0
402 444 5 -0.54688 46.05036 40.36492 27.14694 0 0 0
407 444 5 -0.5469000000000001 48.7721 37.47795 24.56285 0 0 0
408 444 5 -0.54689 47.63278 39.45131 24.56285 0 0 0
409 444 5 -0.54687 44.46794 39.45130999999999 24.56287 0 0 0
540 444 2 0.11525 46.05036 42.75141999999999 27.60076 0 0 0
546 444 2 0.11528 48.692259999999976 41.22613999640482 23.28657 0 0 0
588 444 3 -0.09125 46.05035 42.67291 28.68726 0 0 0
594 444 3 -0.09125999999999999 49.55673999999999 40.64851999999999 22.96141 0 0 0
599 444 3 -0.09132999999999999 46.05035000000001 43.80821999999975 29.49005 0 0 0
969 444 2 0.11529 50.83888 37.50806999999999 23.28657 0 0 0
1017 444 3 -0.09128 50.770880000000005 38.54554 22.96141 0 0 0
955 444 1 0.96283 64.47055 37.22213 28.28349 0 0 0
956 444 1 0.96284 64.47054 39.073299999999996 25.66554 0 0 0
972 444 2 0.11527 59.68202 37.50807 23.28658 0 0 0
987 444 3 0.60538 64.47052 40.178399999999996 28.41042 0 0 0
991 444 3 0.60531 61.910340000000005 38.700289999999995 24.22963 0 0 0
999 444 3 -0.03012 64.47051 41.39865999999999 29.27328 0 0 0
1003 444 3 -0.03015 60.85354999999999 39.31039 23.36678 0 0 0
1020 444 3 -0.09123000000000001 59.75002 38.54552 22.96143 0 0 0
1035 444 4 -1.02796 64.47054000000001 37.22211999999999 26.32002 0 0 0
1037 444 5 -0.54688 64.47052 39.04933999999999 29.00744 0 0 0
1038 444 5 -0.54688 64.47052 40.36492 27.14694 0 0 0
1045 444 5 -0.54687 62.88810000000001 39.45130999999999 24.56287 0 0 0
1046 444 5 -0.5468499999999999 61.748810000000006 37.477929999999986 24.56286 0 0 0
1176 444 2 0.11525 64.47053000000002 42.75141999999999 27.60076 0 0 0
1183 444 2 0.11528 61.82864 41.226119999999995 23.28658 0 0 0
1224 444 3 -0.09125 64.47052 42.67291 28.68726 0 0 0
1231 444 3 -0.09125 60.96418 40.64852 22.96142 0 0 0
1235 444 3 -0.09132999999999999 64.47051000000002 43.80821999999975 29.49005 0 0 0
990 444 3 0.6054 67.03074000000002 38.70026 24.22961 0 0 0
1002 444 3 -0.03015 68.08752000000004 39.3104 23.36676 0 0 0
1043 444 5 -0.5469000000000001 67.19226 37.47795 24.56285 0 0 0
1044 444 5 -0.54689 66.05294 39.45131 24.56285 0 0 0
1182 444 2 0.11528 67.11243000000005 41.22613999640482 23.28657 0 0 0
1230 444 3 -0.09125999999999999 67.9769 40.64851999999999 22.96141 0 0 0
1605 444 2 0.11529 69.25905000000002 37.50806999999999 23.28657 0 0 0
1653 444 3 -0.09128 69.19105000000003 38.54554 22.96141 0 0 0
1608 444 2 0.11527 78.10219 37.50807 23.28658 0 0 0
1639 444 3 -0.03015 79.27371 39.31039 23.36678 0 0 0
1656 444 3 -0.09123000000000001 78.17019000000002 38.54552 22.96143 0 0 0
1867 444 3 -0.09125 79.38434 40.64852 22.96142 0 0 0
1591 444 1 0.96283 82.89072000000002 37.22213 28.28349 0 0 0
1592 444 1 0.96284 82.89070999999998 39.073299999999996 25.66554 0 0 0
1623 444 3 0.60538 82.89069 40.178399999999996 28.41042 0 0 0
1626 444 3 0.6054 85.45090000000005 38.70026 24.22961 0 0 0
1627 444 3 0.60531 80.33051000000003 38.700289999999995 24.22963 0 0 0
1635 444 3 -0.03012 82.89068000000002 41.39865999999999 29.27328 0 0 0
1638 444 3 -0.03015 86.50769 39.3104 23.36676 0 0 0
1671 444 4 -1.02796 82.8907 37.22211999999999 26.32002 0 0 0
1673 444 5 -0.54688 82.89069000000002 39.04933999999999 29.00744 0 0 0
1674 444 5 -0.54688 82.89069000000002 40.36492 27.14694 0 0 0
1679 444 5 -0.5469000000000001 85.61243000000002 37.47795 24.56285 0 0 0
1680 444 5 -0.54689 84.47310999999999 39.45131 24.56285 0 0 0
1681 444 5 -0.54687 81.30827000000002 39.45130999999999 24.56287 0 0 0
1682 444 5 -0.5468499999999999 80.16898000000003 37.477929999999986 24.56286 0 0 0
1812 444 2 0.11525 82.89069000000003 42.75141999999999 27.60076 0 0 0
1818 444 2 0.11528 85.53259000002947 41.22613999640482 23.28657 0 0 0
1819 444 2 0.11528 80.24881 41.226119999999995 23.28658 0 0 0
1860 444 3 -0.09125 82.89069 42.67291 28.68726 0 0 0
1866 444 3 -0.09125999999999999 86.39707000000003 40.64851999999999 22.96141 0 0 0
1871 444 3 -0.09132999999999999 82.89068000000015 43.80821999999975 29.49005 0 0 0
541 444 2 0.1153 38.98689 48.8845 23.28656 0 0 0
549 444 2 0.11528 41.62879000000001 50.40982 27.60078 0 0 0
556 444 2 0.11525 43.40847000000001 49.38232 29.05387 0 0 0
589 444 3 -0.09134 38.05444 48.42466 22.9614 0 0 0
597 444 3 -0.09130000000000001 41.56079 50.44906999999999 28.68728 0 0 0
604 444 3 -0.0912 42.54401 49.88141 29.49006 0 0 0
543 444 2 0.11527 50.47194000000003 50.40982 27.60076 0 0 0
551 444 2 0.11528 46.05036 44.806419999999996 29.05386 0 0 0
562 444 2 0.11528 48.69225999999996 49.382329999999826 29.05386 0 0 0
591 444 3 -0.09128 50.53994000000011 50.44908999999999 28.68728 0 0 0
610 444 3 -0.09125 49.55672999999999 49.88142999999979 29.49005 0 0 0
542 444 2 0.11533 53.11381000000001 48.8845 23.28656 0 0 0
564 444 3 0.60546 55.26047 50.21819 24.22961 0 0 0
576 444 3 -0.03019 55.26043 48.99791999999999 23.36675 0 0 0
577 444 3 -0.03019 51.64346 51.086209999999994 29.27327 0 0 0
590 444 3 -0.09141000000000001 54.046290000000006 48.42466 22.9614 0 0 0
615 444 5 -0.54688 56.39974 50.68944999999999 24.56285 0 0 0
616 444 5 -0.54696 54.12109999999999 50.68944999999999 24.56285 0 0 0
1177 444 2 0.1153 57.40706000000001 48.8845 23.28656 0 0 0
1225 444 3 -0.09134 56.4746 48.42466 22.9614 0 0 0
580 444 3 -0.03016 58.87742999999999 51.08618999999999 29.27329 0 0 0
1185 444 2 0.11528 60.04896000000002 50.40982 27.60078 0 0 0
1187 444 2 0.11528 64.47053 44.806419999999996 29.05386 0 0 0
1192 444 2 0.11525 61.82864 49.38232 29.05387 0 0 0
1233 444 3 -0.09130000000000001 59.98096000000001 50.44906999999999 28.68728 0 0 0
1240 444 3 -0.0912 60.96417000000001 49.88141 29.49006 0 0 0
1178 444 2 0.11533 71.53398 48.8845 23.28656 0 0 0
1179 444 2 0.11527 68.89210000000003 50.40982 27.60076 0 0 0
1198 444 2 0.11528 67.11243 49.382329999999826 29.05386 0 0 0
1213 444 3 -0.03019 70.06362999999999 51.086209999999994 29.27327 0 0 0
1227 444 3 -0.09128 68.96010999999999 50.44908999999999 28.68728 0 0 0
1246 444 3 -0.09125 67.97689 49.88142999999979 29.49005 0 0 0
1200 444 3 0.60546 73.68063 50.21819 24.22961 0 0 0
1212 444 3 -0.03019 73.68059 48.99791999999999 23.36675 0 0 0
1216 444 3 -0.03016 77.29759 51.08618999999999 29.27329 0 0 0
1226 444 3 -0.09141000000000001 72.46646 48.42466 22.9614 0 0 0
1251 444 5 -0.54688 74.81991 50.68944999999999 24.56285 0 0 0
1252 444 5 -0.54696 72.54127 50.68944999999999 24.56285 0 0 0
1813 444 2 0.1153 75.82722 48.8845 23.28656 0 0 0
1821 444 2 0.11528 78.46912000000007 50.40982 27.60078 0 0 0
1861 444 3 -0.09134 74.89477 48.42466 22.9614 0 0 0
1869 444 3 -0.09130000000000001 78.40113 50.44906999999999 28.68728 0 0 0
1876 444 3 -0.0912 79.38434000000004 49.88141 29.49006 0 0 0
1823 444 2 0.11528 82.89069 44.806419999999996 29.05386 0 0 0
1828 444 2 0.11525 80.24880000000005 49.38232 29.05387 0 0 0
1834 444 2 0.11528 85.53258999999994 49.382329999999826 29.05386 0 0 0
1882 444 3 -0.09125 86.39706000000004 49.88142999999979 29.49005 0 0 0
1814 444 2 0.11533 89.95415 48.8845 23.28656 0 0 0
1815 444 2 0.11527 87.31227 50.40982 27.60076 0 0 0
1836 444 3 0.60546 92.1008 50.21819 24.22961 0 0 0
1848 444 3 -0.03019 92.10076 48.99791999999999 23.36675 0 0 0
1849 444 3 -0.03019 88.48379 51.086209999999994 29.27327 0 0 0
1862 444 3 -0.09141000000000001 90.88661999999998 48.42466 22.9614 0 0 0
1863 444 3 -0.09128 87.38028000000003 50.44908999999999 28.68728 0 0 0
1887 444 5 -0.54688 93.24007 50.68944999999999 24.56285 0 0 0
1888 444 5 -0.54696 90.96142999999998 50.68944999999999 24.56285 0 0 0
1852 444 3 -0.03016 95.71776 51.08618999999999 29.27329 0 0 0
545 444 2 0.11529 41.62877999999999 53.46040999999999 23.28657 0 0 0
593 444 3 -0.09128 41.56079 54.49787999999999 22.96141 0 0 0
548 444 2 0.11527 50.47192 53.46041 23.28658 0 0 0
596 444 3 -0.09123000000000001 50.53992 54.49785999999999 22.96143 0 0 0
531 444 1 0.96283 55.26045000000003 53.17447 28.28349 0 0 0
532 444 1 0.96284 55.260440000000024 55.02564 25.66554 0 0 0
533 444 1 0.9628 56.86360999999999 52.24887999999999 25.66554 0 0 0
534 444 1 0.96279 53.657259999999994 52.24884999999999 25.66552 0 0 0
563 444 3 0.60538 55.260419999999996 56.130739999999996 28.41042 0 0 0
565 444 3 0.6054 52.70025 51.69635 28.41044 0 0 0
566 444 3 0.6054 57.82064 54.6526 24.22961 0 0 0
567 444 3 0.60531 52.70024000000002 54.65263 24.22963 0 0 0
568 444 3 0.60539 57.82065000000003 51.6963199999996 28.41043 0 0 0
575 444 3 -0.03012 55.260410003944315 57.350999999999615 29.27328 0 0 0
579 444 3 -0.03015 51.64345 55.26273 23.36678 0 0 0
611 444 4 -1.02796 55.26044 53.174459999999996 26.32002 0 0 0
613 444 5 -0.54688 55.260419999999996 55.00167999999998 29.00744 0 0 0
614 444 5 -0.54688 55.260419999999996 56.31725999999999 27.14694 0 0 0
617 444 5 -0.54689 52.538709999999995 51.60307 27.14692 0 0 0
618 444 5 -0.54692 53.67801999999999 52.26085999999999 29.00743 0 0 0
620 444 5 -0.54689 56.84284 55.40365 24.56285 0 0 0
621 444 5 -0.54687 53.67801 55.40365 24.56287 0 0 0
622 444 5 -0.5468499999999999 52.53871 53.43027 24.56286 0 0 0
624 444 5 -0.5469000000000001 56.842850000000006 52.26085999999999 29.00745 0 0 0
578 444 3 -0.03015 58.87742 55.26274 23.36676 0 0 0
619 444 5 -0.5469000000000001 57.98216 53.430289999999985 24.56285 0 0 0
623 444 5 -0.54688 57.98217000000001 51.60306 27.14694 0 0 0
1181 444 2 0.11529 60.048950000000005 53.46040999999999 23.28657 0 0 0
1229 444 3 -0.09128 59.98095000000001 54.49787999999999 22.96141 0 0 0
1170 444 1 0.96279 72.07743 52.24884999999999 25.66552 0 0 0
1184 444 2 0.11527 68.89209 53.46041 23.28658 0 0 0
1201 444 3 0.6054 71.12042 51.69635 28.41044 0 0 0
1203 444 3 0.60531 71.12041 54.65263 24.22963 0 0 0
1215 444 3 -0.03015 70.06360999999997 55.26273 23.36678 0 0 0
1232 444 3 -0.09123000000000001 68.96008999999998 54.49785999999999 22.96143 0 0 0
1253 444 5 -0.54689 70.95888 51.60307 27.14692 0 0 0
1254 444 5 -0.54692 72.09819000000023 52.26085999999999 29.00743 0 0 0
1257 444 5 -0.54687 72.09817 55.40365 24.56287 0 0 0
1258 444 5 -0.5468499999999999 70.95888 53.43027 24.56286 0 0 0
1167 444 1 0.96283 73.68062 53.17447 28.28349 0 0 0
1168 444 1 0.96284 73.68061 55.02564 25.66554 0 0 0
1169 444 1 0.9628 75.28377999999998 52.24887999999999 25.66554 0 0 0
1199 444 3 0.60538 73.68059000000001 56.130739999999996 28.41042 0 0 0
1202 444 3 0.6054 76.2408 54.6526 24.22961 0 0 0
1204 444 3 0.60539 76.24081000000005 51.6963199999996 28.41043 0 0 0
1211 444 3 -0.03012 73.68058000000002 57.350999999999615 29.27328 0 0 0
1214 444 3 -0.03015 77.29759000000001 55.26274 23.36676 0 0 0
1247 444 4 -1.02796 73.68060000000003 53.174459999999996 26.32002 0 0 0
1249 444 5 -0.54688 73.68059 55.00167999999998 29.00744 0 0 0
1250 444 5 -0.54688 73.68059 56.31725999999999 27.14694 0 0 0
1255 444 5 -0.5469000000000001 76.40233 53.430289999999985 24.56285 0 0 0
1256 444 5 -0.54689 75.26300999999998 55.40365 24.56285 0 0 0
1259 444 5 -0.54688 76.40234 51.60306 27.14694 0 0 0
1260 444 5 -0.5469000000000001 75.26301999999998 52.26085999999999 29.00745 0 0 0
1817 444 2 0.11529 78.46911000000003 53.46040999999999 23.28657 0 0 0
1865 444 3 -0.09128 78.40112000000003 54.49787999999999 22.96141 0 0 0
1954 460 6 0.7 85.8237310358439 53.51542900571458 29.891352465940916 -1 0 -2
1955 460 7 -0.35 85.3618783484766 53.16203090474983 28.887558462809817 -1 0 -2
1803 444 1 0.96283 92.10079000000002 53.17447 28.28349 0 0 0
1804 444 1 0.96284 92.10078000000001 55.02564 25.66554 0 0 0
1805 444 1 0.9628 93.70393999999999 52.24887999999999 25.66554 0 0 0
1806 444 1 0.96279 90.4976 52.24884999999999 25.66552 0 0 0
1820 444 2 0.11527 87.31225 53.46041 23.28658 0 0 0
1835 444 3 0.60538 92.10075000000002 56.130739999999996 28.41042 0 0 0
1837 444 3 0.6054 89.54059000000001 51.69635 28.41044 0 0 0
1839 444 3 0.60531 89.54057000000012 54.65263 24.22963 0 0 0
1847 444 3 -0.03012 92.10074000000003 57.350999999999615 29.27328 0 0 0
1851 444 3 -0.03015 88.48378 55.26273 23.36678 0 0 0
1868 444 3 -0.09123000000000001 87.38026000000002 54.49785999999999 22.96143 0 0 0
1883 444 4 -1.02796 92.10076999999998 53.174459999999996 26.32002 0 0 0
1885 444 5 -0.54688 92.10075000000002 55.00167999999998 29.00744 0 0 0
1886 444 5 -0.54688 92.10076 56.31725999999999 27.14694 0 0 0
1889 444 5 -0.54689 89.37904 51.60307 27.14692 0 0 0
1890 444 5 -0.54692 90.51835000000001 52.26085999999999 29.00743 0 0 0
1892 444 5 -0.54689 93.68318 55.40365 24.56285 0 0 0
1893 444 5 -0.54687 90.51834 55.40365 24.56287 0 0 0
1894 444 5 -0.5468499999999999 89.37904 53.43027 24.56286 0 0 0
1896 444 5 -0.5469000000000001 93.68318 52.26085999999999 29.00745 0 0 0
1838 444 3 0.6054 94.66097 54.6526 24.22961 0 0 0
1840 444 3 0.60539 94.66098000000018 51.6963199999996 28.41043 0 0 0
1850 444 3 -0.03015 95.71775000000001 55.26274 23.36676 0 0 0
1891 444 5 -0.5469000000000001 94.82250000000002 53.430289999999985 24.56285 0 0 0
1895 444 5 -0.54688 94.8225 51.60306 27.14694 0 0 0

Velocities

41 0 0 0
43 0 0 0
55 0 0 0
99 0 0 0
104 0 0 0
1925 -0.0015047615768830004 -0.0029743741940069708 -0.0010241244798807737
1926 -0.0007534365160559599 -0.0006451496540238747 0.0017186934694844518
5 0 0 0
6 0 0 0
7 0 0 0
8 0 0 0
27 0 0 0
39 0 0 0
42 0 0 0
44 0 0 0
51 0 0 0
54 0 0 0
75 0 0 0
82 0 0 0
95 0 0 0
96 0 0 0
100 0 0 0
101 0 0 0
102 0 0 0
103 0 0 0
105 0 0 0
106 0 0 0
30 0 0 0
78 0 0 0
641 0 0 0
642 0 0 0
644 0 0 0
675 0 0 0
677 0 0 0
679 0 0 0
687 0 0 0
691 0 0 0
718 0 0 0
731 0 0 0
732 0 0 0
735 0 0 0
736 0 0 0
739 0 0 0
740 0 0 0
643 0 0 0
663 0 0 0
678 0 0 0
680 0 0 0
690 0 0 0
711 0 0 0
737 0 0 0
738 0 0 0
741 0 0 0
742 0 0 0
666 0 0 0
714 0 0 0
1327 0 0 0
1371 0 0 0
1376 0 0 0
1277 0 0 0
1278 0 0 0
1279 0 0 0
1280 0 0 0
1311 0 0 0
1313 0 0 0
1314 0 0 0
1315 0 0 0
1316 0 0 0
1323 0 0 0
1326 0 0 0
1354 0 0 0
1367 0 0 0
1368 0 0 0
1372 0 0 0
1373 0 0 0
1374 0 0 0
1375 0 0 0
1377 0 0 0
1378 0 0 0
1299 0 0 0
1347 0 0 0
1962 0.005679486223135013 -0.005564655491300141 0.006167986127347718
1967 0.00043254065711518456 0.001420274126006879 0.0027498383193810838
1966 -0.0013285359909092692 0.006054729779930614 0.002060414866851162
1968 -0.0017399501497945813 0.0021161498782170662 0.0038820758243039684
1960 0.004486246698016094 -0.0038845206008737087 0.0032882972888815896
1302 0 0 0
1350 0 0 0
1961 0.002503511369854489 -0.0019850378145100968 0.004043973322267956
53 0 0 0
23 0 0 0
31 0 0 0
40 0 0 0
52 0 0 0
56 0 0 0
71 0 0 0
79 0 0 0
97 0 0 0
98 0 0 0
9 0 0 0
14 0 0 0
20 0 0 0
62 0 0 0
24 0 0 0
25 0 0 0
68 0 0 0
72 0 0 0
73 0 0 0
676 0 0 0
688 0 0 0
689 0 0 0
707 0 0 0
733 0 0 0
734 0 0 0
650 0 0 0
659 0 0 0
667 0 0 0
692 0 0 0
698 0 0 0
715 0 0 0
645 0 0 0
656 0 0 0
661 0 0 0
704 0 0 0
709 0 0 0
1325 0 0 0
660 0 0 0
708 0 0 0
1295 0 0 0
1312 0 0 0
1324 0 0 0
1328 0 0 0
1343 0 0 0
1369 0 0 0
1370 0 0 0
1281 0 0 0
1286 0 0 0
1303 0 0 0
1334 0 0 0
1351 0 0 0
1292 0 0 0
1296 0 0 0
1297 0 0 0
1340 0 0 0
1344 0 0 0
1345 0 0 0
22 0 0 0
28 0 0 0
29 0 0 0
57 0 0 0
70 0 0 0
77 0 0 0
217 0 0 0
218 0 0 0
251 0 0 0
254 0 0 0
255 0 0 0
263 0 0 0
267 0 0 0
294 0 0 0
307 0 0 0
308 0 0 0
313 0 0 0
314 0 0 0
315 0 0 0
316 0 0 0
76 0 0 0
239 0 0 0
266 0 0 0
287 0 0 0
242 0 0 0
290 0 0 0
665 0 0 0
713 0 0 0
891 0 0 0
903 0 0 0
951 0 0 0
952 0 0 0
658 0 0 0
664 0 0 0
693 0 0 0
706 0 0 0
712 0 0 0
853 0 0 0
854 0 0 0
875 0 0 0
887 0 0 0
890 0 0 0
899 0 0 0
902 0 0 0
923 0 0 0
930 0 0 0
943 0 0 0
944 0 0 0
949 0 0 0
950 0 0 0
878 0 0 0
926 0 0 0
1294 0 0 0
1301 0 0 0
1329 0 0 0
1342 0 0 0
1349 0 0 0
1489 0 0 0
1490 0 0 0
1523 0 0 0
1526 0 0 0
1527 0 0 0
1535 0 0 0
1539 0 0 0
1566 0 0 0
1579 0 0 0
1580 0 0 0
1586 0 0 0
1587 0 0 0
1588 0 0 0
1300 0 0 0
1348 0 0 0
1511 0 0 0
1538 0 0 0
1559 0 0 0
1585 0 0 0
1514 0 0 0
1562 0 0 0
219 0 0 0
220 0 0 0
235 0 0 0
252 0 0 0
253 0 0 0
256 0 0 0
264 0 0 0
265 0 0 0
283 0 0 0
309 0 0 0
310 0 0 0
311 0 0 0
312 0 0 0
317 0 0 0
318 0 0 0
226 0 0 0
243 0 0 0
268 0 0 0
274 0 0 0
291 0 0 0
232 0 0 0
236 0 0 0
237 0 0 0
280 0 0 0
284 0 0 0
285 0 0 0
856 0 0 0
889 0 0 0
901 0 0 0
946 0 0 0
947 0 0 0
948 0 0 0
855 0 0 0
862 0 0 0
871 0 0 0
879 0 0 0
888 0 0 0
892 0 0 0
900 0 0 0
904 0 0 0
910 0 0 0
919 0 0 0
927 0 0 0
945 0 0 0
953 0 0 0
954 0 0 0
868 0 0 0
873 0 0 0
916 0 0 0
921 0 0 0
872 0 0 0
920 0 0 0
1491 0 0 0
1492 0 0 0
1507 0 0 0
1524 0 0 0
1525 0 0 0
1528 0 0 0
1536 0 0 0
1537 0 0 0
1555 0 0 0
1581 0 0 0
1582 0 0 0
1583 0 0 0
1584 0 0 0
1590 0 0 0
1911 0.0030463940543960866 0.00020012988891529018 0.001258523396607954
1910 -0.003767722147228818 0.002309539437830571 -0.0014690602566586831
1909 0.0056396014332885025 0.004556122940422567 0.0027074207873488652
1498 0 0 0
1515 0 0 0
1540 0 0 0
1546 0 0 0
1563 0 0 0
1589 0 0 0
1504 0 0 0
1508 0 0 0
1509 0 0 0
1552 0 0 0
1557 0 0 0
1556 0 0 0
221 0 0 0
234 0 0 0
241 0 0 0
269 0 0 0
282 0 0 0
289 0 0 0
430 0 0 0
463 0 0 0
467 0 0 0
475 0 0 0
479 0 0 0
519 0 0 0
520 0 0 0
527 0 0 0
240 0 0 0
288 0 0 0
466 0 0 0
478 0 0 0
499 0 0 0
526 0 0 0
502 0 0 0
877 0 0 0
925 0 0 0
1115 0 0 0
857 0 0 0
870 0 0 0
876 0 0 0
905 0 0 0
918 0 0 0
924 0 0 0
1066 0 0 0
1099 0 0 0
1102 0 0 0
1103 0 0 0
1111 0 0 0
1114 0 0 0
1155 0 0 0
1156 0 0 0
1162 0 0 0
1163 0 0 0
1958 -0.0036470696994452467 0.0031246603572773267 0.004131484428122131
1959 -0.003114230389232515 -0.0024136604769745013 -0.0007269775443533655
1957 -0.006776233218956101 0.0015151944489818006 0.0007035049619384386
1135 0 0 0
1138 0 0 0
1493 0 0 0
1506 0 0 0
1513 0 0 0
1541 0 0 0
1554 0 0 0
1561 0 0 0
1702 0 0 0
1735 0 0 0
1739 0 0 0
1747 0 0 0
1751 0 0 0
1791 0 0 0
1792 0 0 0
1799 0 0 0
1512 0 0 0
1560 0 0 0
1738 0 0 0
1750 0 0 0
1771 0 0 0
1798 0 0 0
1774 0 0 0
429 0 0 0
432 0 0 0
464 0 0 0
465 0 0 0
476 0 0 0
477 0 0 0
495 0 0 0
506 0 0 0
521 0 0 0
522 0 0 0
523 0 0 0
524 0 0 0
528 0 0 0
431 0 0 0
438 0 0 0
447 0 0 0
451 0 0 0
455 0 0 0
468 0 0 0
480 0 0 0
486 0 0 0
503 0 0 0
525 0 0 0
529 0 0 0
530 0 0 0
444 0 0 0
449 0 0 0
454 0 0 0
492 0 0 0
497 0 0 0
1113 0 0 0
1159 0 0 0
1164 0 0 0
448 0 0 0
496 0 0 0
1065 0 0 0
1067 0 0 0
1068 0 0 0
1083 0 0 0
1100 0 0 0
1101 0 0 0
1104 0 0 0
1112 0 0 0
1116 0 0 0
1131 0 0 0
1142 0 0 0
1157 0 0 0
1158 0 0 0
1160 0 0 0
1161 0 0 0
1165 0 0 0
1166 0 0 0
1074 0 0 0
1087 0 0 0
1091 0 0 0
1122 0 0 0
1139 0 0 0
1080 0 0 0
1084 0 0 0
1085 0 0 0
1090 0 0 0
1128 0 0 0
1132 0 0 0
1133 0 0 0
1701 0 0 0
1704 0 0 0
1736 0 0 0
1737 0 0 0
1748 0 0 0
1749 0 0 0
1778 0 0 0
1794 0 0 0
1795 0 0 0
1796 0 0 0
1800 0 0 0
1703 0 0 0
1710 0 0 0
1719 0 0 0
1723 0 0 0
1727 0 0 0
1740 0 0 0
1752 0 0 0
1758 0 0 0
1767 0 0 0
1775 0 0 0
1793 0 0 0
1797 0 0 0
1801 0 0 0
1802 0 0 0
1956 0.0006210064995358739 -0.004160411707834224 -0.00023473021638857638
1716 0 0 0
1721 0 0 0
1726 0 0 0
1764 0 0 0
1769 0 0 0
1720 0 0 0
1768 0 0 0
453 0 0 0
501 0 0 0
433 0 0 0
446 0 0 0
452 0 0 0
481 0 0 0
494 0 0 0
500 0 0 0
1947 -0.00034534135276279173 0.001408676435833347 -0.0008126647910972565
1945 -0.0011401072614250828 0.00017411750936393124 -0.004306425852475937
1946 -0.001649093080943263 0.0003375299165095495 -0.005693577525738415
1914 0.0022248523478491495 0.002735225699226854 -0.000998624232434601
1912 0.0020035994768201663 -0.0018254204608439024 -0.002329996976505146
1913 0.0033059428695937465 0.002664537337620412 -0.0029163106889953964
1069 0 0 0
1082 0 0 0
1089 0 0 0
1117 0 0 0
1130 0 0 0
1137 0 0 0
1088 0 0 0
1136 0 0 0
1725 0 0 0
1773 0 0 0
1705 0 0 0
1718 0 0 0
1724 0 0 0
1753 0 0 0
1766 0 0 0
1772 0 0 0
10 0 0 0
16 0 0 0
17 0 0 0
58 0 0 0
65 0 0 0
69 0 0 0
64 0 0 0
653 0 0 0
701 0 0 0
646 0 0 0
652 0 0 0
694 0 0 0
700 0 0 0
705 0 0 0
1282 0 0 0
1289 0 0 0
1330 0 0 0
1337 0 0 0
1341 0 0 0
1288 0 0 0
1336 0 0 0
11 0 0 0
19 0 0 0
59 0 0 0
67 0 0 0
21 0 0 0
26 0 0 0
32 0 0 0
74 0 0 0
12 0 0 0
13 0 0 0
34 0 0 0
35 0 0 0
46 0 0 0
47 0 0 0
60 0 0 0
61 0 0 0
80 0 0 0
85 0 0 0
86 0 0 0
87 0 0 0
695 0 0 0
38 0 0 0
50 0 0 0
93 0 0 0
647 0 0 0
655 0 0 0
662 0 0 0
703 0 0 0
710 0 0 0
649 0 0 0
657 0 0 0
668 0 0 0
683 0 0 0
697 0 0 0
716 0 0 0
723 0 0 0
648 0 0 0
670 0 0 0
671 0 0 0
674 0 0 0
682 0 0 0
686 0 0 0
696 0 0 0
721 0 0 0
722 0 0 0
729 0 0 0
1283 0 0 0
1331 0 0 0
1291 0 0 0
1293 0 0 0
1298 0 0 0
1339 0 0 0
1346 0 0 0
1284 0 0 0
1285 0 0 0
1304 0 0 0
1306 0 0 0
1307 0 0 0
1318 0 0 0
1319 0 0 0
1332 0 0 0
1333 0 0 0
1352 0 0 0
1358 0 0 0
1359 0 0 0
1310 0 0 0
1322 0 0 0
1357 0 0 0
1365 0 0 0
15 0 0 0
63 0 0 0
1 0 0 0
2 0 0 0
4 0 0 0
18 0 0 0
33 0 0 0
37 0 0 0
45 0 0 0
49 0 0 0
66 0 0 0
81 0 0 0
83 0 0 0
84 0 0 0
88 0 0 0
91 0 0 0
92 0 0 0
222 0 0 0
229 0 0 0
270 0 0 0
277 0 0 0
3 0 0 0
36 0 0 0
48 0 0 0
89 0 0 0
90 0 0 0
94 0 0 0
228 0 0 0
276 0 0 0
651 0 0 0
699 0 0 0
654 0 0 0
685 0 0 0
702 0 0 0
728 0 0 0
865 0 0 0
913 0 0 0
637 0 0 0
638 0 0 0
639 0 0 0
640 0 0 0
669 0 0 0
672 0 0 0
673 0 0 0
681 0 0 0
684 0 0 0
717 0 0 0
719 0 0 0
720 0 0 0
724 0 0 0
725 0 0 0
726 0 0 0
727 0 0 0
730 0 0 0
858 0 0 0
864 0 0 0
906 0 0 0
912 0 0 0
1287 0 0 0
1335 0 0 0
1273 0 0 0
1274 0 0 0
1276 0 0 0
1290 0 0 0
1305 0 0 0
1309 0 0 0
1317 0 0 0
1321 0 0 0
1338 0 0 0
1353 0 0 0
1355 0 0 0
1356 0 0 0
1360 0 0 0
1363 0 0 0
1364 0 0 0
1494 0 0 0
1501 0 0 0
1542 0 0 0
1549 0 0 0
1275 0 0 0
1308 0 0 0
1320 0 0 0
1361 0 0 0
1362 0 0 0
1366 0 0 0
1500 0 0 0
1548 0 0 0
223 0 0 0
271 0 0 0
231 0 0 0
233 0 0 0
238 0 0 0
279 0 0 0
281 0 0 0
286 0 0 0
224 0 0 0
225 0 0 0
244 0 0 0
272 0 0 0
273 0 0 0
292 0 0 0
246 0 0 0
258 0 0 0
859 0 0 0
867 0 0 0
874 0 0 0
907 0 0 0
915 0 0 0
922 0 0 0
1935 -0.005703931628878556 0.002883492649178488 -0.002170634205255668
861 0 0 0
869 0 0 0
880 0 0 0
909 0 0 0
917 0 0 0
928 0 0 0
860 0 0 0
882 0 0 0
894 0 0 0
908 0 0 0
1495 0 0 0
1543 0 0 0
1503 0 0 0
1505 0 0 0
1510 0 0 0
1551 0 0 0
1553 0 0 0
1558 0 0 0
1496 0 0 0
1497 0 0 0
1516 0 0 0
1545 0 0 0
1564 0 0 0
1518 0 0 0
1530 0 0 0
1544 0 0 0
227 0 0 0
275 0 0 0
1928 0.005227140478224769 0.006812395920150441 3.50772591575967e-05
216 0 0 0
230 0 0 0
247 0 0 0
249 0 0 0
259 0 0 0
261 0 0 0
278 0 0 0
298 0 0 0
299 0 0 0
300 0 0 0
303 0 0 0
304 0 0 0
441 0 0 0
489 0 0 0
213 0 0 0
214 0 0 0
215 0 0 0
245 0 0 0
248 0 0 0
250 0 0 0
257 0 0 0
260 0 0 0
262 0 0 0
293 0 0 0
295 0 0 0
296 0 0 0
297 0 0 0
301 0 0 0
302 0 0 0
305 0 0 0
306 0 0 0
440 0 0 0
488 0 0 0
863 0 0 0
911 0 0 0
866 0 0 0
914 0 0 0
849 0 0 0
850 0 0 0
851 0 0 0
852 0 0 0
881 0 0 0
883 0 0 0
884 0 0 0
885 0 0 0
886 0 0 0
893 0 0 0
895 0 0 0
897 0 0 0
929 0 0 0
931 0 0 0
932 0 0 0
933 0 0 0
934 0 0 0
935 0 0 0
936 0 0 0
938 0 0 0
939 0 0 0
940 0 0 0
942 0 0 0
1077 0 0 0
1125 0 0 0
896 0 0 0
898 0 0 0
937 0 0 0
941 0 0 0
1076 0 0 0
1124 0 0 0
1499 0 0 0
1547 0 0 0
1488 0 0 0
1502 0 0 0
1519 0 0 0
1521 0 0 0
1531 0 0 0
1533 0 0 0
1550 0 0 0
1571 0 0 0
1572 0 0 0
1575 0 0 0
1576 0 0 0
1713 0 0 0
1761 0 0 0
1485 0 0 0
1486 0 0 0
1487 0 0 0
1517 0 0 0
1520 0 0 0
1522 0 0 0
1529 0 0 0
1532 0 0 0
1534 0 0 0
1565 0 0 0
1567 0 0 0
1568 0 0 0
1569 0 0 0
1570 0 0 0
1573 0 0 0
1574 0 0 0
1577 0 0 0
1578 0 0 0
1712 0 0 0
1760 0 0 0
483 0 0 0
1917 0.002777425550341263 -0.0054336680584176865 0.0035137946864326427
1916 0.002371860882716236 0.0001764453854269394 -0.0008269685948350434
435 0 0 0
1915 -0.0006969419614488101 0.001990214965360306 -0.001332252386729842
434 0 0 0
445 0 0 0
482 0 0 0
493 0 0 0
436 0 0 0
470 0 0 0
484 0 0 0
1071 0 0 0
1119 0 0 0
1070 0 0 0
1081 0 0 0
1118 0 0 0
1129 0 0 0
1072 0 0 0
1106 0 0 0
1120 0 0 0
1707 0 0 0
1755 0 0 0
1921 -0.004316807517634519 0.002517398079205785 -0.004532973231630279
1923 0.0056781737729840916 0.004440588212652167 -0.007167904691330098
1922 -0.00697985689350834 0.0012669612539888365 -0.00318111867222581
1929 0.0008883675954092667 -0.00038082819057737804 0.00032182052821610557
1706 0 0 0
1717 0 0 0
1754 0 0 0
1765 0 0 0
1927 -0.0009353879688725449 -0.0031325453287837585 -0.0016176192315980388
1708 0 0 0
1742 0 0 0
1756 0 0 0
439 0 0 0
443 0 0 0
450 0 0 0
487 0 0 0
491 0 0 0
498 0 0 0
437 0 0 0
442 0 0 0
456 0 0 0
471 0 0 0
473 0 0 0
485 0 0 0
490 0 0 0
504 0 0 0
511 0 0 0
516 0 0 0
425 0 0 0
426 0 0 0
427 0 0 0
428 0 0 0
457 0 0 0
458 0 0 0
459 0 0 0
460 0 0 0
461 0 0 0
462 0 0 0
472 0 0 0
474 0 0 0
505 0 0 0
507 0 0 0
508 0 0 0
509 0 0 0
510 0 0 0
512 0 0 0
513 0 0 0
514 0 0 0
515 0 0 0
517 0 0 0
518 0 0 0
1075 0 0 0
1079 0 0 0
1086 0 0 0
1123 0 0 0
1127 0 0 0
1134 0 0 0
1061 0 0 0
1062 0 0 0
1064 0 0 0
1073 0 0 0
1078 0 0 0
1092 0 0 0
1093 0 0 0
1094 0 0 0
1095 0 0 0
1097 0 0 0
1107 0 0 0
1109 0 0 0
1121 0 0 0
1126 0 0 0
1140 0 0 0
1141 0 0 0
1143 0 0 0
1144 0 0 0
1146 0 0 0
1147 0 0 0
1148 0 0 0
1151 0 0 0
1152 0 0 0
1063 0 0 0
1096 0 0 0
1098 0 0 0
1108 0 0 0
1110 0 0 0
1145 0 0 0
1149 0 0 0
1150 0 0 0
1153 0 0 0
1154 0 0 0
1711 0 0 0
1715 0 0 0
1722 0 0 0
1759 0 0 0
1763 0 0 0
1770 0 0 0
1709 0 0 0
1714 0 0 0
1728 0 0 0
1743 0 0 0
1745 0 0 0
1757 0 0 0
1762 0 0 0
1776 0 0 0
1697 0 0 0
1698 0 0 0
1699 0 0 0
1700 0 0 0
1729 0 0 0
1730 0 0 0
1731 0 0 0
1732 0 0 0
1733 0 0 0
1734 0 0 0
1744 0 0 0
1746 0 0 0
1777 0 0 0
1779 0 0 0
1780 0 0 0
1781 0 0 0
1782 0 0 0
1783 0 0 0
1784 0 0 0
1785 0 0 0
1786 0 0 0
1787 0 0 0
1788 0 0 0
1789 0 0 0
1790 0 0 0
469 0 0 0
1105 0 0 0
1741 0 0 0
157 0 0 0
793 0 0 0
1429 0 0 0
111 0 0 0
112 0 0 0
113 0 0 0
114 0 0 0
145 0 0 0
146 0 0 0
147 0 0 0
148 0 0 0
149 0 0 0
150 0 0 0
159 0 0 0
161 0 0 0
188 0 0 0
201 0 0 0
202 0 0 0
203 0 0 0
204 0 0 0
205 0 0 0
206 0 0 0
207 0 0 0
208 0 0 0
209 0 0 0
210 0 0 0
211 0 0 0
212 0 0 0
120 0 0 0
133 0 0 0
137 0 0 0
160 0 0 0
162 0 0 0
168 0 0 0
181 0 0 0
185 0 0 0
126 0 0 0
131 0 0 0
136 0 0 0
174 0 0 0
179 0 0 0
184 0 0 0
750 0 0 0
783 0 0 0
785 0 0 0
795 0 0 0
797 0 0 0
840 0 0 0
841 0 0 0
842 0 0 0
845 0 0 0
846 0 0 0
747 0 0 0
748 0 0 0
749 0 0 0
756 0 0 0
769 0 0 0
773 0 0 0
781 0 0 0
782 0 0 0
784 0 0 0
786 0 0 0
796 0 0 0
798 0 0 0
804 0 0 0
817 0 0 0
821 0 0 0
824 0 0 0
837 0 0 0
838 0 0 0
839 0 0 0
843 0 0 0
844 0 0 0
847 0 0 0
848 0 0 0
762 0 0 0
767 0 0 0
772 0 0 0
810 0 0 0
815 0 0 0
820 0 0 0
1383 0 0 0
1384 0 0 0
1385 0 0 0
1386 0 0 0
1417 0 0 0
1418 0 0 0
1419 0 0 0
1420 0 0 0
1421 0 0 0
1422 0 0 0
1431 0 0 0
1433 0 0 0
1460 0 0 0
1473 0 0 0
1474 0 0 0
1475 0 0 0
1476 0 0 0
1477 0 0 0
1478 0 0 0
1480 0 0 0
1481 0 0 0
1482 0 0 0
1484 0 0 0
1392 0 0 0
1405 0 0 0
1409 0 0 0
1432 0 0 0
1434 0 0 0
1440 0 0 0
1453 0 0 0
1457 0 0 0
1479 0 0 0
1483 0 0 0
1398 0 0 0
1403 0 0 0
1408 0 0 0
1446 0 0 0
1451 0 0 0
1456 0 0 0
129 0 0 0
158 0 0 0
177 0 0 0
115 0 0 0
128 0 0 0
163 0 0 0
176 0 0 0
130 0 0 0
178 0 0 0
765 0 0 0
794 0 0 0
813 0 0 0
751 0 0 0
764 0 0 0
799 0 0 0
812 0 0 0
766 0 0 0
814 0 0 0
1401 0 0 0
1430 0 0 0
1449 0 0 0
1387 0 0 0
1400 0 0 0
1435 0 0 0
1448 0 0 0
1402 0 0 0
1450 0 0 0
135 0 0 0
183 0 0 0
323 0 0 0
324 0 0 0
326 0 0 0
357 0 0 0
359 0 0 0
361 0 0 0
369 0 0 0
371 0 0 0
373 0 0 0
400 0 0 0
413 0 0 0
414 0 0 0
415 0 0 0
416 0 0 0
417 0 0 0
418 0 0 0
421 0 0 0
422 0 0 0
1938 -0.001137773636722901 -0.0006731032775216419 0.0019850776827714275
1936 -0.0005804324901360131 -9.518394517767112e-05 0.0004571268434580632
134 0 0 0
182 0 0 0
325 0 0 0
345 0 0 0
360 0 0 0
362 0 0 0
372 0 0 0
374 0 0 0
393 0 0 0
419 0 0 0
420 0 0 0
423 0 0 0
424 0 0 0
1934 -0.0007599784205509427 0.002959805110011429 -0.000225316178726674
1933 -0.0019613488631103774 0.003102524374910248 -0.0034167866006477076
348 0 0 0
396 0 0 0
771 0 0 0
819 0 0 0
1007 0 0 0
1009 0 0 0
1053 0 0 0
1058 0 0 0
770 0 0 0
818 0 0 0
959 0 0 0
960 0 0 0
961 0 0 0
962 0 0 0
993 0 0 0
995 0 0 0
996 0 0 0
997 0 0 0
998 0 0 0
1005 0 0 0
1008 0 0 0
1010 0 0 0
1036 0 0 0
1049 0 0 0
1050 0 0 0
1051 0 0 0
1052 0 0 0
1054 0 0 0
1055 0 0 0
1056 0 0 0
1057 0 0 0
1059 0 0 0
1060 0 0 0
981 0 0 0
1029 0 0 0
984 0 0 0
1032 0 0 0
1407 0 0 0
1455 0 0 0
1595 0 0 0
1596 0 0 0
1598 0 0 0
1629 0 0 0
1631 0 0 0
1633 0 0 0
1641 0 0 0
1643 0 0 0
1645 0 0 0
1672 0 0 0
1685 0 0 0
1686 0 0 0
1688 0 0 0
1689 0 0 0
1690 0 0 0
1693 0 0 0
1694 0 0 0
1406 0 0 0
1454 0 0 0
1597 0 0 0
1617 0 0 0
1632 0 0 0
1634 0 0 0
1644 0 0 0
1646 0 0 0
1665 0 0 0
1687 0 0 0
1691 0 0 0
1692 0 0 0
1695 0 0 0
1696 0 0 0
1937 -0.0013174215499993495 0.0009829329084284082 -0.0003110156811429694
1620 0 0 0
1668 0 0 0
358 0 0 0
370 0 0 0
389 0 0 0
332 0 0 0
341 0 0 0
349 0 0 0
380 0 0 0
397 0 0 0
327 0 0 0
338 0 0 0
343 0 0 0
375 0 0 0
386 0 0 0
391 0 0 0
342 0 0 0
390 0 0 0
977 0 0 0
994 0 0 0
1006 0 0 0
1025 0 0 0
963 0 0 0
968 0 0 0
985 0 0 0
1011 0 0 0
1016 0 0 0
1033 0 0 0
974 0 0 0
978 0 0 0
979 0 0 0
1022 0 0 0
1026 0 0 0
1027 0 0 0
1630 0 0 0
1642 0 0 0
1604 0 0 0
1613 0 0 0
1621 0 0 0
1652 0 0 0
1661 0 0 0
1669 0 0 0
1599 0 0 0
1610 0 0 0
1615 0 0 0
1647 0 0 0
1658 0 0 0
1663 0 0 0
1614 0 0 0
1662 0 0 0
347 0 0 0
395 0 0 0
538 0 0 0
573 0 0 0
585 0 0 0
630 0 0 0
633 0 0 0
634 0 0 0
340 0 0 0
346 0 0 0
388 0 0 0
394 0 0 0
535 0 0 0
536 0 0 0
537 0 0 0
557 0 0 0
569 0 0 0
572 0 0 0
581 0 0 0
584 0 0 0
605 0 0 0
612 0 0 0
625 0 0 0
626 0 0 0
631 0 0 0
632 0 0 0
636 0 0 0
560 0 0 0
608 0 0 0
976 0 0 0
983 0 0 0
1024 0 0 0
1031 0 0 0
1171 0 0 0
1172 0 0 0
1173 0 0 0
1174 0 0 0
1205 0 0 0
1208 0 0 0
1209 0 0 0
1217 0 0 0
1221 0 0 0
1248 0 0 0
1261 0 0 0
1262 0 0 0
1266 0 0 0
1268 0 0 0
1269 0 0 0
1270 0 0 0
1272 0 0 0
982 0 0 0
1030 0 0 0
1193 0 0 0
1220 0 0 0
1241 0 0 0
1267 0 0 0
1196 0 0 0
1244 0 0 0
1619 0 0 0
1667 0 0 0
1810 0 0 0
1845 0 0 0
1857 0 0 0
1902 0 0 0
1905 0 0 0
1906 0 0 0
1612 0 0 0
1618 0 0 0
1660 0 0 0
1666 0 0 0
1807 0 0 0
1808 0 0 0
1809 0 0 0
1829 0 0 0
1841 0 0 0
1844 0 0 0
1853 0 0 0
1856 0 0 0
1877 0 0 0
1884 0 0 0
1897 0 0 0
1898 0 0 0
1903 0 0 0
1904 0 0 0
1908 0 0 0
1832 0 0 0
1880 0 0 0
571 0 0 0
583 0 0 0
628 0 0 0
629 0 0 0
544 0 0 0
553 0 0 0
561 0 0 0
570 0 0 0
574 0 0 0
582 0 0 0
586 0 0 0
592 0 0 0
601 0 0 0
609 0 0 0
627 0 0 0
635 0 0 0
539 0 0 0
550 0 0 0
555 0 0 0
598 0 0 0
603 0 0 0
554 0 0 0
602 0 0 0
1189 0 0 0
1206 0 0 0
1207 0 0 0
1210 0 0 0
1218 0 0 0
1219 0 0 0
1237 0 0 0
1263 0 0 0
1264 0 0 0
1265 0 0 0
1175 0 0 0
1180 0 0 0
1197 0 0 0
1222 0 0 0
1228 0 0 0
1245 0 0 0
1271 0 0 0
1186 0 0 0
1190 0 0 0
1191 0 0 0
1234 0 0 0
1239 0 0 0
1843 0 0 0
1855 0 0 0
1901 0 0 0
1238 0 0 0
1825 0 0 0
1833 0 0 0
1842 0 0 0
1846 0 0 0
1854 0 0 0
1858 0 0 0
1864 0 0 0
1873 0 0 0
1881 0 0 0
1899 0 0 0
1900 0 0 0
1907 0 0 0
1811 0 0 0
1816 0 0 0
1822 0 0 0
1870 0 0 0
1826 0 0 0
1827 0 0 0
1874 0 0 0
1875 0 0 0
559 0 0 0
607 0 0 0
552 0 0 0
558 0 0 0
587 0 0 0
600 0 0 0
606 0 0 0
1188 0 0 0
1195 0 0 0
1223 0 0 0
1236 0 0 0
1243 0 0 0
1194 0 0 0
1242 0 0 0
1879 0 0 0
1824 0 0 0
1830 0 0 0
1831 0 0 0
1859 0 0 0
1872 0 0 0
1878 0 0 0
1930 -0.0053668575776395925 -0.001767500429324356 0.0018158568126002178
1931 0.005301849069332677 -0.0011989647301068234 0.003842467885854994
1932 -0.005970188509550149 -0.003840844570159363 0.004103087279767583
1924 -0.0028035605287927276 0.003036857752911572 -0.001222762605329349
116 0 0 0
123 0 0 0
127 0 0 0
164 0 0 0
171 0 0 0
175 0 0 0
1943 -0.0013206371510871954 -0.0013749785480003066 -0.0005158204150871367
122 0 0 0
170 0 0 0
759 0 0 0
807 0 0 0
752 0 0 0
758 0 0 0
763 0 0 0
800 0 0 0
806 0 0 0
811 0 0 0
1388 0 0 0
1395 0 0 0
1399 0 0 0
1436 0 0 0
1443 0 0 0
1447 0 0 0
1965 2.1312342640113875e-05 -0.004714275241345633 0.0018727606134890773
1964 -0.007180434133285874 0.0004899905783794256 -0.0016807102644171735
1963 0.0024637928419207365 -0.0038355511256760394 -0.0025645629189701242
1394 0 0 0
1442 0 0 0
1953 -0.0034615599987028196 -0.0013765049156968085 -0.00494286415022567
117 0 0 0
165 0 0 0
1939 -0.0019242410574475688 -0.0004506734839237491 -0.003597548580697004
1942 0.0024297119298104038 -0.00041729196054440245 0.0012802468552432138
1944 -0.004147219225508842 -0.0015613502608183593 0.005162377122854153
1941 -0.001089003325678026 0.0035550489220503197 0.0004809188377810099
121 0 0 0
125 0 0 0
132 0 0 0
173 0 0 0
180 0 0 0
1940 -0.0003580096325593743 0.00600132338045491 0.002951412568944998
110 0 0 0
118 0 0 0
119 0 0 0
124 0 0 0
138 0 0 0
141 0 0 0
153 0 0 0
166 0 0 0
167 0 0 0
186 0 0 0
192 0 0 0
193 0 0 0
194 0 0 0
198 0 0 0
107 0 0 0
109 0 0 0
140 0 0 0
144 0 0 0
152 0 0 0
156 0 0 0
187 0 0 0
191 0 0 0
195 0 0 0
199 0 0 0
200 0 0 0
753 0 0 0
757 0 0 0
761 0 0 0
768 0 0 0
801 0 0 0
809 0 0 0
816 0 0 0
755 0 0 0
760 0 0 0
774 0 0 0
803 0 0 0
822 0 0 0
743 0 0 0
745 0 0 0
746 0 0 0
754 0 0 0
776 0 0 0
777 0 0 0
780 0 0 0
788 0 0 0
789 0 0 0
802 0 0 0
823 0 0 0
827 0 0 0
828 0 0 0
829 0 0 0
830 0 0 0
834 0 0 0
836 0 0 0
1389 0 0 0
1437 0 0 0
792 0 0 0
831 0 0 0
835 0 0 0
1393 0 0 0
1397 0 0 0
1404 0 0 0
1445 0 0 0
1452 0 0 0
1382 0 0 0
1390 0 0 0
1391 0 0 0
1396 0 0 0
1410 0 0 0
1413 0 0 0
1425 0 0 0
1439 0 0 0
1458 0 0 0
1465 0 0 0
1466 0 0 0
1470 0 0 0
1920 -0.0010685460698280098 -0.002039062190000422 -0.00765657214338842
1919 -0.0001192935304511417 -0.004291173303797368 -0.001585164900970148
1918 -0.002176201401504077 0.001968189265632496 -0.003369613019538177
1952 0.004537954162963341 0.0014681748747861878 0.001218092247267568
1951 0.0011689429078701704 0.0003624078859065283 0.00043545769143382164
1379 0 0 0
1381 0 0 0
1412 0 0 0
1416 0 0 0
1424 0 0 0
1428 0 0 0
1438 0 0 0
1459 0 0 0
1463 0 0 0
1464 0 0 0
1467 0 0 0
1471 0 0 0
1472 0 0 0
169 0 0 0
143 0 0 0
155 0 0 0
172 0 0 0
197 0 0 0
335 0 0 0
383 0 0 0
108 0 0 0
139 0 0 0
142 0 0 0
151 0 0 0
154 0 0 0
189 0 0 0
190 0 0 0
196 0 0 0
328 0 0 0
334 0 0 0
339 0 0 0
376 0 0 0
382 0 0 0
387 0 0 0
805 0 0 0
808 0 0 0
744 0 0 0
775 0 0 0
778 0 0 0
779 0 0 0
787 0 0 0
791 0 0 0
825 0 0 0
826 0 0 0
832 0 0 0
833 0 0 0
964 0 0 0
971 0 0 0
975 0 0 0
1012 0 0 0
1019 0 0 0
1023 0 0 0
790 0 0 0
970 0 0 0
1018 0 0 0
1441 0 0 0
1415 0 0 0
1427 0 0 0
1444 0 0 0
1469 0 0 0
1607 0 0 0
1655 0 0 0
1380 0 0 0
1411 0 0 0
1414 0 0 0
1423 0 0 0
1426 0 0 0
1461 0 0 0
1462 0 0 0
1468 0 0 0
1600 0 0 0
1606 0 0 0
1611 0 0 0
1648 0 0 0
1654 0 0 0
1659 0 0 0
377 0 0 0
329 0 0 0
337 0 0 0
344 0 0 0
385 0 0 0
392 0 0 0
331 0 0 0
350 0 0 0
365 0 0 0
379 0 0 0
398 0 0 0
405 0 0 0
321 0 0 0
322 0 0 0
330 0 0 0
352 0 0 0
353 0 0 0
356 0 0 0
364 0 0 0
368 0 0 0
378 0 0 0
403 0 0 0
404 0 0 0
406 0 0 0
411 0 0 0
412 0 0 0
965 0 0 0
1013 0 0 0
973 0 0 0
980 0 0 0
1021 0 0 0
1028 0 0 0
958 0 0 0
966 0 0 0
967 0 0 0
986 0 0 0
988 0 0 0
989 0 0 0
1000 0 0 0
1001 0 0 0
1014 0 0 0
1015 0 0 0
1034 0 0 0
1040 0 0 0
1041 0 0 0
1042 0 0 0
957 0 0 0
992 0 0 0
1004 0 0 0
1039 0 0 0
1047 0 0 0
1048 0 0 0
1601 0 0 0
1609 0 0 0
1616 0 0 0
1649 0 0 0
1657 0 0 0
1664 0 0 0
1603 0 0 0
1622 0 0 0
1637 0 0 0
1651 0 0 0
1670 0 0 0
1593 0 0 0
1594 0 0 0
1602 0 0 0
1624 0 0 0
1625 0 0 0
1628 0 0 0
1636 0 0 0
1640 0 0 0
1650 0 0 0
1675 0 0 0
1676 0 0 0
1677 0 0 0
1678 0 0 0
1683 0 0 0
1684 0 0 0
333 0 0 0
381 0 0 0
1950 -0.0035436128630560635 0.0003446405178628561 -0.0019316462632191353
336 0 0 0
367 0 0 0
384 0 0 0
410 0 0 0
547 0 0 0
595 0 0 0
1948 -0.003069170238498505 0.00046937466552701105 -0.0013773655049424743
1949 -0.002497418304597109 0.0007466183423100103 -0.0009528445621091562
319 0 0 0
320 0 0 0
351 0 0 0
354 0 0 0
355 0 0 0
363 0 0 0
366 0 0 0
399 0 0 0
401 0 0 0
402 0 0 0
407 0 0 0
408 0 0 0
409 0 0 0
540 0 0 0
546 0 0 0
588 0 0 0
594 0 0 0
599 0 0 0
969 0 0 0
1017 0 0 0
955 0 0 0
956 0 0 0
972 0 0 0
987 0 0 0
991 0 0 0
999 0 0 0
1003 0 0 0
1020 0 0 0
1035 0 0 0
1037 0 0 0
1038 0 0 0
1045 0 0 0
1046 0 0 0
1176 0 0 0
1183 0 0 0
1224 0 0 0
1231 0 0 0
1235 0 0 0
990 0 0 0
1002 0 0 0
1043 0 0 0
1044 0 0 0
1182 0 0 0
1230 0 0 0
1605 0 0 0
1653 0 0 0
1608 0 0 0
1639 0 0 0
1656 0 0 0
1867 0 0 0
1591 0 0 0
1592 0 0 0
1623 0 0 0
1626 0 0 0
1627 0 0 0
1635 0 0 0
1638 0 0 0
1671 0 0 0
1673 0 0 0
1674 0 0 0
1679 0 0 0
1680 0 0 0
1681 0 0 0
1682 0 0 0
1812 0 0 0
1818 0 0 0
1819 0 0 0
1860 0 0 0
1866 0 0 0
1871 0 0 0
541 0 0 0
549 0 0 0
556 0 0 0
589 0 0 0
597 0 0 0
604 0 0 0
543 0 0 0
551 0 0 0
562 0 0 0
591 0 0 0
610 0 0 0
542 0 0 0
564 0 0 0
576 0 0 0
577 0 0 0
590 0 0 0
615 0 0 0
616 0 0 0
1177 0 0 0
1225 0 0 0
580 0 0 0
1185 0 0 0
1187 0 0 0
1192 0 0 0
1233 0 0 0
1240 0 0 0
1178 0 0 0
1179 0 0 0
1198 0 0 0
1213 0 0 0
1227 0 0 0
1246 0 0 0
1200 0 0 0
1212 0 0 0
1216 0 0 0
1226 0 0 0
1251 0 0 0
1252 0 0 0
1813 0 0 0
1821 0 0 0
1861 0 0 0
1869 0 0 0
1876 0 0 0
1823 0 0 0
1828 0 0 0
1834 0 0 0
1882 0 0 0
1814 0 0 0
1815 0 0 0
1836 0 0 0
1848 0 0 0
1849 0 0 0
1862 0 0 0
1863 0 0 0
1887 0 0 0
1888 0 0 0
1852 0 0 0
545 0 0 0
593 0 0 0
548 0 0 0
596 0 0 0
531 0 0 0
532 0 0 0
533 0 0 0
534 0 0 0
563 0 0 0
565 0 0 0
566 0 0 0
567 0 0 0
568 0 0 0
575 0 0 0
579 0 0 0
611 0 0 0
613 0 0 0
614 0 0 0
617 0 0 0
618 0 0 0
620 0 0 0
621 0 0 0
622 0 0 0
624 0 0 0
578 0 0 0
619 0 0 0
623 0 0 0
1181 0 0 0
1229 0 0 0
1170 0 0 0
1184 0 0 0
1201 0 0 0
1203 0 0 0
1215 0 0 0
1232 0 0 0
1253 0 0 0
1254 0 0 0
1257 0 0 0
1258 0 0 0
1167 0 0 0
1168 0 0 0
1169 0 0 0
1199 0 0 0
1202 0 0 0
1204 0 0 0
1211 0 0 0
1214 0 0 0
1247 0 0 0
1249 0 0 0
1250 0 0 0
1255 0 0 0
1256 0 0 0
1259 0 0 0
1260 0 0 0
1817 0 0 0
1865 0 0 0
1954 -0.001335790030831679 -4.944154417789101e-06 -0.00192162580428508
1955 -0.003041245077778964 0.006553390863209382 -0.003445876934826614
1803 0 0 0
1804 0 0 0
1805 0 0 0
1806 0 0 0
1820 0 0 0
1835 0 0 0
1837 0 0 0
1839 0 0 0
1847 0 0 0
1851 0 0 0
1868 0 0 0
1883 0 0 0
1885 0 0 0
1886 0 0 0
1889 0 0 0
1890 0 0 0
1892 0 0 0
1893 0 0 0
1894 0 0 0
1896 0 0 0
1838 0 0 0
1840 0 0 0
1850 0 0 0
1891 0 0 0
1895 0 0 0

Bonds

1 4 41 53
2 5 41 99
3 5 41 100
4 4 43 55
5 5 43 103
6 5 43 104
7 6 55 501
8 6 55 1350
9 1 5 82
10 2 5 95
11 2 5 100
12 2 5 106
13 1 6 82
14 2 6 96
15 2 6 102
16 2 6 103
17 1 7 82
18 2 7 97
19 2 7 101
20 2 7 105
21 1 8 82
22 2 8 98
23 2 8 99
24 2 8 104
25 3 27 75
26 4 39 51
27 5 39 95
28 5 39 96
29 4 42 54
30 5 42 101
31 5 42 102
32 4 44 56
33 5 44 105
34 5 44 106
35 6 51 175
36 6 51 494
37 6 54 75
38 6 54 500
39 3 30 78
40 1 641 718
41 2 641 731
42 2 641 736
43 2 641 742
44 1 642 718
45 2 642 732
46 2 642 738
47 2 642 739
48 1 644 718
49 2 644 734
50 2 644 735
51 2 644 740
52 4 675 687
53 5 675 731
54 5 675 732
55 4 677 689
56 5 677 735
57 5 677 736
58 4 679 691
59 5 679 739
60 5 679 740
61 6 687 811
62 6 687 1130
63 6 691 78
64 6 691 1137
65 1 643 718
66 2 643 733
67 2 643 737
68 2 643 741
69 3 663 711
70 4 678 690
71 5 678 737
72 5 678 738
73 4 680 692
74 5 680 741
75 5 680 742
76 6 690 711
77 6 690 1136
78 3 666 714
79 6 1327 714
80 6 1327 1773
81 1 1277 1354
82 2 1277 1367
83 2 1277 1372
84 2 1277 1378
85 1 1278 1354
86 2 1278 1368
87 2 1278 1374
88 2 1278 1375
89 1 1279 1354
90 2 1279 1369
91 2 1279 1373
92 2 1279 1377
93 1 1280 1354
94 2 1280 1370
95 2 1280 1371
96 2 1280 1376
97 4 1311 1323
98 5 1311 1367
99 5 1311 1368
100 4 1313 1325
101 5 1313 1371
102 5 1313 1372
103 4 1314 1326
104 5 1314 1373
105 5 1314 1374
106 4 1315 1327
107 5 1315 1375
108 5 1315 1376
109 4 1316 1328
110 5 1316 1377
111 5 1316 1378
112 6 1323 1447
113 6 1323 1766
114 6 1326 1347
115 6 1326 1772
116 3 1299 1347
117 7 1966 1967
118 7 1966 1968
119 7 1960 1961
120 7 1960 1962
121 3 1302 1350
122 6 53 180
123 6 53 1345
124 3 23 71
125 3 31 79
126 4 40 52
127 5 40 97
128 5 40 98
129 6 52 71
130 6 52 1344
131 6 56 79
132 6 56 186
133 3 9 57
134 3 14 62
135 3 20 68
136 6 62 79
137 3 24 72
138 3 25 73
139 6 68 73
140 4 676 688
141 5 676 733
142 5 676 734
143 6 688 72
144 6 688 707
145 6 689 73
146 6 689 816
147 3 650 698
148 3 659 707
149 3 667 715
150 6 692 715
151 6 692 822
152 6 698 715
153 3 645 693
154 3 656 704
155 3 661 709
156 6 704 709
157 6 1325 709
158 6 1325 1452
159 3 660 708
160 3 1295 1343
161 4 1312 1324
162 5 1312 1369
163 5 1312 1370
164 6 1324 708
165 6 1324 1343
166 6 1328 1351
167 6 1328 1458
168 3 1281 1329
169 3 1286 1334
170 3 1303 1351
171 6 1334 1351
172 3 1292 1340
173 3 1296 1344
174 3 1297 1345
175 6 1340 1345
176 3 22 70
177 3 28 76
178 3 29 77
179 6 57 70
180 1 217 294
181 2 217 307
182 2 217 312
183 2 217 318
184 1 218 294
185 2 218 308
186 2 218 314
187 2 218 315
188 4 251 263
189 5 251 307
190 5 251 308
191 4 254 266
192 5 254 313
193 5 254 314
194 4 255 267
195 5 255 315
196 5 255 316
197 6 263 70
198 6 263 387
199 6 267 77
200 6 267 1562
201 3 239 287
202 6 266 76
203 6 266 287
204 3 242 290
205 3 665 713
206 4 891 903
207 5 891 951
208 5 891 952
209 6 903 290
210 6 903 713
211 3 658 706
212 3 664 712
213 6 693 706
214 1 853 930
215 2 853 943
216 2 853 948
217 2 853 954
218 1 854 930
219 2 854 944
220 2 854 950
221 2 854 951
222 3 875 923
223 4 887 899
224 5 887 943
225 5 887 944
226 4 890 902
227 5 890 949
228 5 890 950
229 6 899 706
230 6 899 1023
231 6 902 712
232 6 902 923
233 3 878 926
234 3 1294 1342
235 3 1301 1349
236 6 1329 1342
237 1 1489 1566
238 2 1489 1579
239 2 1489 1584
240 2 1489 1590
241 1 1490 1566
242 2 1490 1580
243 2 1490 1586
244 2 1490 1587
245 4 1523 1535
246 5 1523 1579
247 5 1523 1580
248 4 1526 1538
249 5 1526 1585
250 5 1526 1586
251 4 1527 1539
252 5 1527 1587
253 5 1527 1588
254 6 1535 1342
255 6 1535 1659
256 6 1539 926
257 6 1539 1349
258 3 1300 1348
259 3 1511 1559
260 6 1538 1348
261 6 1538 1559
262 3 1514 1562
263 1 219 294
264 2 219 309
265 2 219 313
266 2 219 317
267 1 220 294
268 2 220 310
269 2 220 311
270 2 220 316
271 3 235 283
272 4 252 264
273 5 252 309
274 5 252 310
275 4 253 265
276 5 253 311
277 5 253 312
278 4 256 268
279 5 256 317
280 5 256 318
281 6 264 283
282 6 264 1556
283 6 265 392
284 6 265 1557
285 3 226 274
286 3 243 291
287 6 268 291
288 6 268 398
289 6 274 291
290 3 232 280
291 3 236 284
292 3 237 285
293 6 280 285
294 1 856 930
295 2 856 946
296 2 856 947
297 2 856 952
298 4 889 901
299 5 889 947
300 5 889 948
301 6 901 285
302 6 901 1028
303 1 855 930
304 2 855 945
305 2 855 949
306 2 855 953
307 3 862 910
308 3 871 919
309 3 879 927
310 4 888 900
311 5 888 945
312 5 888 946
313 4 892 904
314 5 892 953
315 5 892 954
316 6 900 284
317 6 900 919
318 6 904 927
319 6 904 1034
320 6 910 927
321 3 868 916
322 3 873 921
323 6 916 921
324 3 872 920
325 1 1491 1566
326 2 1491 1581
327 2 1491 1585
328 2 1491 1589
329 1 1492 1566
330 2 1492 1582
331 2 1492 1583
332 2 1492 1588
333 3 1507 1555
334 4 1524 1536
335 5 1524 1581
336 5 1524 1582
337 4 1525 1537
338 5 1525 1583
339 5 1525 1584
340 4 1528 1540
341 5 1528 1589
342 5 1528 1590
343 6 1536 920
344 6 1536 1555
345 6 1537 921
346 6 1537 1664
347 7 1909 1910
348 7 1909 1911
349 3 1498 1546
350 3 1515 1563
351 6 1540 1563
352 6 1540 1670
353 6 1546 1563
354 3 1504 1552
355 3 1508 1556
356 3 1509 1557
357 6 1552 1557
358 3 221 269
359 3 234 282
360 3 241 289
361 6 269 282
362 1 430 506
363 2 430 520
364 2 430 526
365 2 430 527
366 4 463 475
367 5 463 519
368 5 463 520
369 4 467 479
370 5 467 527
371 5 467 528
372 6 475 282
373 6 475 599
374 6 479 289
375 6 479 1774
376 3 240 288
377 4 466 478
378 5 466 525
379 5 466 526
380 6 478 288
381 6 478 499
382 3 877 925
383 6 1115 502
384 6 1115 925
385 3 857 905
386 3 870 918
387 3 876 924
388 6 905 918
389 1 1066 1142
390 2 1066 1156
391 2 1066 1162
392 2 1066 1163
393 4 1099 1111
394 5 1099 1155
395 5 1099 1156
396 4 1102 1114
397 5 1102 1161
398 5 1102 1162
399 4 1103 1115
400 5 1103 1163
401 5 1103 1164
402 6 1111 918
403 6 1111 1235
404 6 1114 924
405 6 1114 1135
406 7 1957 1958
407 7 1957 1959
408 3 1493 1541
409 3 1506 1554
410 3 1513 1561
411 6 1541 1554
412 1 1702 1778
413 2 1702 1792
414 2 1702 1798
415 2 1702 1799
416 4 1735 1747
417 5 1735 1791
418 5 1735 1792
419 4 1739 1751
420 5 1739 1799
421 5 1739 1800
422 6 1747 1554
423 6 1747 1871
424 6 1751 1138
425 6 1751 1561
426 3 1512 1560
427 4 1738 1750
428 5 1738 1797
429 5 1738 1798
430 6 1750 1560
431 6 1750 1771
432 1 429 506
433 2 429 519
434 2 429 524
435 2 429 530
436 1 432 506
437 2 432 522
438 2 432 523
439 2 432 528
440 4 464 476
441 5 464 521
442 5 464 522
443 4 465 477
444 5 465 523
445 5 465 524
446 6 476 495
447 6 476 1768
448 6 477 604
449 6 477 1769
450 1 431 506
451 2 431 521
452 2 431 525
453 2 431 529
454 3 438 486
455 3 447 495
456 3 451 499
457 3 455 503
458 4 468 480
459 5 468 529
460 5 468 530
461 6 480 503
462 6 480 610
463 6 486 503
464 3 444 492
465 3 449 497
466 3 454 502
467 6 492 497
468 6 1113 497
469 6 1113 1240
470 3 448 496
471 1 1065 1142
472 2 1065 1155
473 2 1065 1160
474 2 1065 1166
475 1 1067 1142
476 2 1067 1157
477 2 1067 1161
478 2 1067 1165
479 1 1068 1142
480 2 1068 1158
481 2 1068 1159
482 2 1068 1164
483 3 1083 1131
484 4 1100 1112
485 5 1100 1157
486 5 1100 1158
487 4 1101 1113
488 5 1101 1159
489 5 1101 1160
490 4 1104 1116
491 5 1104 1165
492 5 1104 1166
493 6 1112 496
494 6 1112 1131
495 6 1116 1139
496 6 1116 1246
497 3 1074 1122
498 3 1087 1135
499 3 1091 1139
500 6 1122 1139
501 3 1080 1128
502 3 1084 1132
503 3 1085 1133
504 3 1090 1138
505 6 1128 1133
506 1 1701 1778
507 2 1701 1791
508 2 1701 1796
509 2 1701 1802
510 1 1704 1778
511 2 1704 1794
512 2 1704 1795
513 2 1704 1800
514 4 1736 1748
515 5 1736 1793
516 5 1736 1794
517 4 1737 1749
518 5 1737 1795
519 5 1737 1796
520 6 1748 1132
521 6 1748 1767
522 6 1749 1133
523 6 1749 1876
524 1 1703 1778
525 2 1703 1793
526 2 1703 1797
527 2 1703 1801
528 3 1710 1758
529 3 1719 1767
530 3 1723 1771
531 3 1727 1775
532 4 1740 1752
533 5 1740 1801
534 5 1740 1802
535 6 1752 1775
536 6 1752 1882
537 6 1758 1775
538 3 1716 1764
539 3 1721 1769
540 3 1726 1774
541 6 1764 1769
542 3 1720 1768
543 3 453 501
544 3 433 481
545 3 446 494
546 3 452 500
547 6 481 494
548 7 1945 1946
549 7 1945 1947
550 7 1912 1913
551 7 1912 1914
552 3 1069 1117
553 3 1082 1130
554 3 1089 1137
555 6 1117 1130
556 3 1088 1136
557 3 1725 1773
558 3 1705 1753
559 3 1718 1766
560 3 1724 1772
561 6 1753 1766
562 3 10 58
563 3 16 64
564 3 17 65
565 6 58 69
566 6 65 75
567 6 64 78
568 3 653 701
569 6 701 711
570 3 646 694
571 3 652 700
572 6 694 705
573 6 700 714
574 3 1282 1330
575 3 1289 1337
576 6 1330 1341
577 6 1337 1347
578 3 1288 1336
579 6 1336 1350
580 3 11 59
581 3 19 67
582 6 59 71
583 6 67 74
584 3 21 69
585 3 26 74
586 3 32 80
587 3 12 60
588 3 13 61
589 4 34 46
590 5 34 85
591 5 34 86
592 4 35 47
593 5 35 87
594 5 35 88
595 6 46 60
596 6 46 695
597 6 47 61
598 6 47 168
599 6 60 72
600 6 61 80
601 6 695 707
602 4 38 50
603 5 38 93
604 5 38 94
605 6 50 174
606 6 50 703
607 3 647 695
608 3 655 703
609 3 662 710
610 6 703 710
611 3 649 697
612 3 657 705
613 3 668 716
614 6 683 697
615 6 683 804
616 6 697 716
617 3 648 696
618 4 670 682
619 5 670 721
620 5 670 722
621 4 671 683
622 5 671 723
623 5 671 724
624 4 674 686
625 5 674 729
626 5 674 730
627 6 682 696
628 6 682 1331
629 6 686 810
630 6 686 1339
631 6 696 708
632 3 1283 1331
633 6 1331 1343
634 3 1291 1339
635 3 1293 1341
636 3 1298 1346
637 6 1339 1346
638 3 1284 1332
639 3 1285 1333
640 3 1304 1352
641 4 1306 1318
642 5 1306 1357
643 5 1306 1358
644 4 1307 1319
645 5 1307 1359
646 5 1307 1360
647 6 1318 59
648 6 1318 1332
649 6 1319 1333
650 6 1319 1440
651 6 1332 1344
652 6 1333 1352
653 4 1310 1322
654 5 1310 1365
655 5 1310 1366
656 6 1322 67
657 6 1322 1446
658 3 15 63
659 6 63 77
660 1 1 81
661 2 1 83
662 2 1 88
663 2 1 94
664 1 2 81
665 2 2 84
666 2 2 90
667 2 2 91
668 1 4 81
669 2 4 86
670 2 4 87
671 2 4 92
672 3 18 66
673 4 33 45
674 5 33 83
675 5 33 84
676 4 37 49
677 5 37 91
678 5 37 92
679 6 45 163
680 6 45 270
681 6 49 66
682 6 49 277
683 6 66 76
684 3 222 270
685 3 229 277
686 6 270 281
687 6 277 287
688 1 3 81
689 2 3 85
690 2 3 89
691 2 3 93
692 4 36 48
693 5 36 89
694 5 36 90
695 6 48 276
696 6 48 699
697 3 228 276
698 6 276 290
699 3 651 699
700 6 699 713
701 3 654 702
702 6 685 702
703 6 685 913
704 6 702 712
705 3 865 913
706 6 913 923
707 1 637 717
708 2 637 719
709 2 637 724
710 2 637 730
711 1 638 717
712 2 638 720
713 2 638 726
714 2 638 727
715 1 639 717
716 2 639 721
717 2 639 725
718 2 639 729
719 1 640 717
720 2 640 722
721 2 640 723
722 2 640 728
723 4 669 681
724 5 669 719
725 5 669 720
726 4 672 684
727 5 672 725
728 5 672 726
729 4 673 685
730 5 673 727
731 5 673 728
732 6 681 799
733 6 681 906
734 6 684 912
735 6 684 1335
736 3 858 906
737 3 864 912
738 6 906 917
739 6 912 926
740 3 1287 1335
741 6 1335 1349
742 1 1273 1353
743 2 1273 1355
744 2 1273 1360
745 2 1273 1366
746 1 1274 1353
747 2 1274 1356
748 2 1274 1362
749 2 1274 1363
750 1 1276 1353
751 2 1276 1358
752 2 1276 1359
753 2 1276 1364
754 3 1290 1338
755 4 1305 1317
756 5 1305 1355
757 5 1305 1356
758 4 1309 1321
759 5 1309 1363
760 5 1309 1364
761 6 1317 1435
762 6 1317 1542
763 6 1321 1338
764 6 1321 1549
765 6 1338 1348
766 3 1494 1542
767 3 1501 1549
768 6 1542 1553
769 6 1549 1559
770 1 1275 1353
771 2 1275 1357
772 2 1275 1361
773 2 1275 1365
774 4 1308 1320
775 5 1308 1361
776 5 1308 1362
777 6 1320 63
778 6 1320 1548
779 3 1500 1548
780 6 1548 1562
781 3 223 271
782 6 271 283
783 3 231 279
784 3 233 281
785 3 238 286
786 6 279 286
787 3 224 272
788 3 225 273
789 3 244 292
790 6 272 284
791 6 273 292
792 4 246 258
793 5 246 297
794 5 246 298
795 6 258 272
796 6 258 907
797 3 859 907
798 3 867 915
799 3 874 922
800 6 907 919
801 6 915 922
802 3 861 909
803 3 869 917
804 3 880 928
805 6 909 928
806 3 860 908
807 4 882 894
808 5 882 933
809 5 882 934
810 6 894 908
811 6 894 1543
812 6 908 920
813 3 1495 1543
814 6 1543 1555
815 3 1503 1551
816 3 1505 1553
817 3 1510 1558
818 6 1551 1558
819 3 1496 1544
820 3 1497 1545
821 3 1516 1564
822 6 1545 1564
823 4 1518 1530
824 5 1518 1569
825 5 1518 1570
826 6 1530 271
827 6 1530 1544
828 6 1544 1556
829 3 227 275
830 6 275 289
831 1 216 293
832 2 216 298
833 2 216 299
834 2 216 304
835 3 230 278
836 4 247 259
837 5 247 299
838 5 247 300
839 4 249 261
840 5 249 303
841 5 249 304
842 6 259 273
843 6 259 380
844 6 261 278
845 6 261 489
846 6 278 288
847 3 441 489
848 6 489 499
849 1 213 293
850 2 213 295
851 2 213 300
852 2 213 306
853 1 214 293
854 2 214 296
855 2 214 302
856 2 214 303
857 1 215 293
858 2 215 297
859 2 215 301
860 2 215 305
861 4 245 257
862 5 245 295
863 5 245 296
864 4 248 260
865 5 248 301
866 5 248 302
867 4 250 262
868 5 250 305
869 5 250 306
870 6 257 375
871 6 257 482
872 6 260 488
873 6 260 911
874 6 262 386
875 6 262 915
876 3 440 488
877 6 488 502
878 3 863 911
879 6 911 925
880 3 866 914
881 6 914 924
882 1 849 929
883 2 849 931
884 2 849 936
885 2 849 942
886 1 850 929
887 2 850 932
888 2 850 938
889 2 850 939
890 1 851 929
891 2 851 933
892 2 851 937
893 2 851 941
894 1 852 929
895 2 852 934
896 2 852 935
897 2 852 940
898 4 881 893
899 5 881 931
900 5 881 932
901 4 883 895
902 5 883 935
903 5 883 936
904 4 884 896
905 5 884 937
906 5 884 938
907 4 885 897
908 5 885 939
909 5 885 940
910 4 886 898
911 5 886 941
912 5 886 942
913 6 893 1011
914 6 893 1118
915 6 895 909
916 6 895 1016
917 6 897 914
918 6 897 1125
919 3 1077 1125
920 6 1125 1135
921 6 896 1124
922 6 896 1547
923 6 898 1022
924 6 898 1551
925 3 1076 1124
926 6 1124 1138
927 3 1499 1547
928 6 1547 1561
929 1 1488 1565
930 2 1488 1570
931 2 1488 1571
932 2 1488 1576
933 3 1502 1550
934 4 1519 1531
935 5 1519 1571
936 5 1519 1572
937 4 1521 1533
938 5 1521 1575
939 5 1521 1576
940 6 1531 1545
941 6 1531 1652
942 6 1533 1550
943 6 1533 1761
944 6 1550 1560
945 3 1713 1761
946 6 1761 1771
947 1 1485 1565
948 2 1485 1567
949 2 1485 1572
950 2 1485 1578
951 1 1486 1565
952 2 1486 1568
953 2 1486 1574
954 2 1486 1575
955 1 1487 1565
956 2 1487 1569
957 2 1487 1573
958 2 1487 1577
959 4 1517 1529
960 5 1517 1567
961 5 1517 1568
962 4 1520 1532
963 5 1520 1573
964 5 1520 1574
965 4 1522 1534
966 5 1522 1577
967 5 1522 1578
968 6 1529 1647
969 6 1529 1754
970 6 1532 275
971 6 1532 1760
972 6 1534 279
973 6 1534 1658
974 3 1712 1760
975 6 1760 1774
976 6 483 495
977 3 435 483
978 7 1915 1916
979 7 1915 1917
980 3 434 482
981 3 445 493
982 6 482 493
983 3 436 484
984 6 470 484
985 6 470 1119
986 6 484 496
987 3 1071 1119
988 6 1119 1131
989 3 1070 1118
990 3 1081 1129
991 6 1118 1129
992 3 1072 1120
993 6 1106 1120
994 6 1106 1755
995 6 1120 1132
996 3 1707 1755
997 6 1755 1767
998 7 1921 1922
999 7 1921 1923
1000 3 1706 1754
1001 3 1717 1765
1002 6 1754 1765
1003 7 1927 1928
1004 7 1927 1929
1005 3 1708 1756
1006 6 1742 483
1007 6 1742 1756
1008 6 1756 1768
1009 3 439 487
1010 3 443 491
1011 3 450 498
1012 6 487 501
1013 6 491 498
1014 3 437 485
1015 3 442 490
1016 3 456 504
1017 6 471 485
1018 6 471 592
1019 6 473 65
1020 6 473 490
1021 6 485 504
1022 6 490 500
1023 1 425 505
1024 2 425 507
1025 2 425 512
1026 2 425 518
1027 1 426 505
1028 2 426 508
1029 2 426 514
1030 2 426 515
1031 1 427 505
1032 2 427 509
1033 2 427 513
1034 2 427 517
1035 1 428 505
1036 2 428 510
1037 2 428 511
1038 2 428 516
1039 4 457 469
1040 5 457 507
1041 5 457 508
1042 4 458 470
1043 5 458 509
1044 5 458 510
1045 4 459 471
1046 5 459 511
1047 5 459 512
1048 4 460 472
1049 5 460 513
1050 5 460 514
1051 4 461 473
1052 5 461 515
1053 5 461 516
1054 4 462 474
1055 5 462 517
1056 5 462 518
1057 6 472 64
1058 6 472 1123
1059 6 474 598
1060 6 474 1127
1061 3 1075 1123
1062 3 1079 1127
1063 3 1086 1134
1064 6 1123 1137
1065 6 1127 1134
1066 1 1061 1141
1067 2 1061 1143
1068 2 1061 1148
1069 2 1061 1154
1070 1 1062 1141
1071 2 1062 1144
1072 2 1062 1150
1073 2 1062 1151
1074 1 1064 1141
1075 2 1064 1146
1076 2 1064 1147
1077 2 1064 1152
1078 3 1073 1121
1079 3 1078 1126
1080 3 1092 1140
1081 4 1093 1105
1082 5 1093 1143
1083 5 1093 1144
1084 4 1094 1106
1085 5 1094 1145
1086 5 1094 1146
1087 4 1095 1107
1088 5 1095 1147
1089 5 1095 1148
1090 4 1097 1109
1091 5 1097 1151
1092 5 1097 1152
1093 6 1107 1121
1094 6 1107 1228
1095 6 1109 701
1096 6 1109 1126
1097 6 1121 1140
1098 6 1126 1136
1099 1 1063 1141
1100 2 1063 1145
1101 2 1063 1149
1102 2 1063 1153
1103 4 1096 1108
1104 5 1096 1149
1105 5 1096 1150
1106 4 1098 1110
1107 5 1098 1153
1108 5 1098 1154
1109 6 1108 700
1110 6 1108 1759
1111 6 1110 1234
1112 6 1110 1763
1113 3 1711 1759
1114 3 1715 1763
1115 3 1722 1770
1116 6 1759 1773
1117 6 1763 1770
1118 3 1709 1757
1119 3 1714 1762
1120 3 1728 1776
1121 6 1743 1757
1122 6 1743 1864
1123 6 1745 1337
1124 6 1745 1762
1125 6 1757 1776
1126 6 1762 1772
1127 1 1697 1777
1128 2 1697 1779
1129 2 1697 1784
1130 2 1697 1790
1131 1 1698 1777
1132 2 1698 1780
1133 2 1698 1786
1134 2 1698 1787
1135 1 1699 1777
1136 2 1699 1781
1137 2 1699 1785
1138 2 1699 1789
1139 1 1700 1777
1140 2 1700 1782
1141 2 1700 1783
1142 2 1700 1788
1143 4 1729 1741
1144 5 1729 1779
1145 5 1729 1780
1146 4 1730 1742
1147 5 1730 1781
1148 5 1730 1782
1149 4 1731 1743
1150 5 1731 1783
1151 5 1731 1784
1152 4 1732 1744
1153 5 1732 1785
1154 5 1732 1786
1155 4 1733 1745
1156 5 1733 1787
1157 5 1733 1788
1158 4 1734 1746
1159 5 1734 1789
1160 5 1734 1790
1161 6 1744 487
1162 6 1744 1336
1163 6 1746 491
1164 6 1746 1870
1165 6 469 58
1166 6 469 587
1167 6 1105 694
1168 6 1105 1223
1169 6 1741 1330
1170 6 1741 1859
1171 6 157 69
1172 6 157 600
1173 6 793 705
1174 6 793 1236
1175 6 1429 1341
1176 6 1429 1872
1177 1 111 188
1178 2 111 201
1179 2 111 206
1180 2 111 212
1181 1 112 188
1182 2 112 202
1183 2 112 208
1184 2 112 209
1185 1 113 188
1186 2 113 203
1187 2 113 207
1188 2 113 211
1189 1 114 188
1190 2 114 204
1191 2 114 205
1192 2 114 210
1193 4 145 157
1194 5 145 201
1195 5 145 202
1196 4 146 158
1197 5 146 203
1198 5 146 204
1199 4 147 159
1200 5 147 205
1201 5 147 206
1202 4 148 160
1203 5 148 207
1204 5 148 208
1205 4 149 161
1206 5 149 209
1207 5 149 210
1208 4 150 162
1209 5 150 211
1210 5 150 212
1211 6 159 74
1212 6 159 1451
1213 6 161 607
1214 6 161 1456
1215 3 120 168
1216 3 133 181
1217 3 137 185
1218 6 160 181
1219 6 160 606
1220 6 162 80
1221 6 162 185
1222 6 168 185
1223 3 126 174
1224 3 131 179
1225 3 136 184
1226 6 174 179
1227 1 750 824
1228 2 750 840
1229 2 750 841
1230 2 750 846
1231 4 783 795
1232 5 783 841
1233 5 783 842
1234 4 785 797
1235 5 785 845
1236 5 785 846
1237 6 795 179
1238 6 795 710
1239 6 797 184
1240 6 797 1243
1241 1 747 824
1242 2 747 837
1243 2 747 842
1244 2 747 848
1245 1 748 824
1246 2 748 838
1247 2 748 844
1248 2 748 845
1249 1 749 824
1250 2 749 839
1251 2 749 843
1252 2 749 847
1253 3 756 804
1254 3 769 817
1255 3 773 821
1256 4 781 793
1257 5 781 837
1258 5 781 838
1259 4 782 794
1260 5 782 839
1261 5 782 840
1262 4 784 796
1263 5 784 843
1264 5 784 844
1265 4 786 798
1266 5 786 847
1267 5 786 848
1268 6 796 817
1269 6 796 1242
1270 6 798 716
1271 6 798 821
1272 6 804 821
1273 3 762 810
1274 3 767 815
1275 3 772 820
1276 6 810 815
1277 1 1383 1460
1278 2 1383 1473
1279 2 1383 1478
1280 2 1383 1484
1281 1 1384 1460
1282 2 1384 1474
1283 2 1384 1480
1284 2 1384 1481
1285 1 1385 1460
1286 2 1385 1475
1287 2 1385 1479
1288 2 1385 1483
1289 1 1386 1460
1290 2 1386 1476
1291 2 1386 1477
1292 2 1386 1482
1293 4 1417 1429
1294 5 1417 1473
1295 5 1417 1474
1296 4 1418 1430
1297 5 1418 1475
1298 5 1418 1476
1299 4 1419 1431
1300 5 1419 1477
1301 5 1419 1478
1302 4 1420 1432
1303 5 1420 1479
1304 5 1420 1480
1305 4 1421 1433
1306 5 1421 1481
1307 5 1421 1482
1308 4 1422 1434
1309 5 1422 1483
1310 5 1422 1484
1311 6 1431 815
1312 6 1431 1346
1313 6 1433 820
1314 6 1433 1879
1315 3 1392 1440
1316 3 1405 1453
1317 3 1409 1457
1318 6 1432 1453
1319 6 1432 1878
1320 6 1434 1352
1321 6 1434 1457
1322 6 1440 1457
1323 3 1398 1446
1324 3 1403 1451
1325 3 1408 1456
1326 6 1446 1451
1327 3 129 177
1328 6 158 177
1329 6 158 1450
1330 3 115 163
1331 3 128 176
1332 6 163 176
1333 3 130 178
1334 3 765 813
1335 6 794 178
1336 6 794 813
1337 3 751 799
1338 3 764 812
1339 6 799 812
1340 3 766 814
1341 3 1401 1449
1342 6 1430 814
1343 6 1430 1449
1344 3 1387 1435
1345 3 1400 1448
1346 6 1435 1448
1347 3 1402 1450
1348 3 135 183
1349 1 323 400
1350 2 323 413
1351 2 323 418
1352 2 323 424
1353 1 324 400
1354 2 324 414
1355 2 324 420
1356 2 324 421
1357 1 326 400
1358 2 326 416
1359 2 326 417
1360 2 326 422
1361 4 357 369
1362 5 357 413
1363 5 357 414
1364 4 359 371
1365 5 359 417
1366 5 359 418
1367 4 361 373
1368 5 361 421
1369 5 361 422
1370 6 369 176
1371 6 369 281
1372 6 371 286
1373 6 371 1663
1374 6 373 183
1375 6 373 1668
1376 7 1936 1937
1377 7 1936 1938
1378 3 134 182
1379 1 325 400
1380 2 325 415
1381 2 325 419
1382 2 325 423
1383 3 345 393
1384 4 360 372
1385 5 360 419
1386 5 360 420
1387 4 362 374
1388 5 362 423
1389 5 362 424
1390 6 372 182
1391 6 372 393
1392 6 374 292
1393 6 374 397
1394 7 1933 1934
1395 7 1933 1935
1396 3 348 396
1397 3 771 819
1398 6 1007 391
1399 6 1007 922
1400 6 1009 396
1401 6 1009 819
1402 3 770 818
1403 1 959 1036
1404 2 959 1049
1405 2 959 1054
1406 2 959 1060
1407 1 960 1036
1408 2 960 1050
1409 2 960 1056
1410 2 960 1057
1411 1 961 1036
1412 2 961 1051
1413 2 961 1055
1414 2 961 1059
1415 1 962 1036
1416 2 962 1052
1417 2 962 1053
1418 2 962 1058
1419 4 993 1005
1420 5 993 1049
1421 5 993 1050
1422 4 995 1007
1423 5 995 1053
1424 5 995 1054
1425 4 996 1008
1426 5 996 1055
1427 5 996 1056
1428 4 997 1009
1429 5 997 1057
1430 5 997 1058
1431 4 998 1010
1432 5 998 1059
1433 5 998 1060
1434 6 1005 812
1435 6 1005 917
1436 6 1008 818
1437 6 1008 1029
1438 6 1010 928
1439 6 1010 1033
1440 3 981 1029
1441 3 984 1032
1442 3 1407 1455
1443 1 1595 1672
1444 2 1595 1685
1445 2 1595 1690
1446 2 1595 1696
1447 1 1596 1672
1448 2 1596 1686
1449 2 1596 1692
1450 2 1596 1693
1451 1 1598 1672
1452 2 1598 1688
1453 2 1598 1689
1454 2 1598 1694
1455 4 1629 1641
1456 5 1629 1685
1457 5 1629 1686
1458 4 1631 1643
1459 5 1631 1689
1460 5 1631 1690
1461 4 1633 1645
1462 5 1633 1693
1463 5 1633 1694
1464 6 1641 1448
1465 6 1641 1553
1466 6 1643 1027
1467 6 1643 1558
1468 6 1645 1032
1469 6 1645 1455
1470 3 1406 1454
1471 1 1597 1672
1472 2 1597 1687
1473 2 1597 1691
1474 2 1597 1695
1475 3 1617 1665
1476 4 1632 1644
1477 5 1632 1691
1478 5 1632 1692
1479 4 1634 1646
1480 5 1634 1695
1481 5 1634 1696
1482 6 1644 1454
1483 6 1644 1665
1484 6 1646 1564
1485 6 1646 1669
1486 3 1620 1668
1487 4 358 370
1488 5 358 415
1489 5 358 416
1490 6 370 389
1491 6 370 1662
1492 3 332 380
1493 3 341 389
1494 3 349 397
1495 6 380 397
1496 3 327 375
1497 3 338 386
1498 3 343 391
1499 6 375 388
1500 6 386 391
1501 3 342 390
1502 3 977 1025
1503 4 994 1006
1504 5 994 1051
1505 5 994 1052
1506 6 1006 390
1507 6 1006 1025
1508 3 963 1011
1509 3 968 1016
1510 3 985 1033
1511 6 1011 1024
1512 6 1016 1033
1513 3 974 1022
1514 3 978 1026
1515 3 979 1027
1516 6 1022 1027
1517 4 1630 1642
1518 5 1630 1687
1519 5 1630 1688
1520 6 1642 1026
1521 6 1642 1661
1522 3 1604 1652
1523 3 1613 1661
1524 3 1621 1669
1525 6 1652 1669
1526 3 1599 1647
1527 3 1610 1658
1528 3 1615 1663
1529 6 1647 1660
1530 6 1658 1663
1531 3 1614 1662
1532 3 347 395
1533 1 538 612
1534 2 538 628
1535 2 538 629
1536 2 538 634
1537 4 573 585
1538 5 573 633
1539 5 573 634
1540 6 585 395
1541 6 585 1880
1542 3 340 388
1543 3 346 394
1544 1 535 612
1545 2 535 625
1546 2 535 630
1547 2 535 636
1548 1 536 612
1549 2 536 626
1550 2 536 632
1551 2 536 633
1552 1 537 612
1553 2 537 627
1554 2 537 631
1555 2 537 635
1556 3 557 605
1557 4 569 581
1558 5 569 625
1559 5 569 626
1560 4 572 584
1561 5 572 631
1562 5 572 632
1563 6 581 388
1564 6 581 493
1565 6 584 394
1566 6 584 605
1567 3 560 608
1568 3 976 1024
1569 3 983 1031
1570 1 1171 1248
1571 2 1171 1261
1572 2 1171 1266
1573 2 1171 1272
1574 1 1172 1248
1575 2 1172 1262
1576 2 1172 1268
1577 2 1172 1269
1578 1 1173 1248
1579 2 1173 1263
1580 2 1173 1267
1581 2 1173 1271
1582 1 1174 1248
1583 2 1174 1264
1584 2 1174 1265
1585 2 1174 1270
1586 4 1205 1217
1587 5 1205 1261
1588 5 1205 1262
1589 4 1208 1220
1590 5 1208 1267
1591 5 1208 1268
1592 4 1209 1221
1593 5 1209 1269
1594 5 1209 1270
1595 6 1217 1024
1596 6 1217 1129
1597 6 1221 608
1598 6 1221 1031
1599 3 982 1030
1600 3 1193 1241
1601 6 1220 1030
1602 6 1220 1241
1603 3 1196 1244
1604 3 1619 1667
1605 1 1810 1884
1606 2 1810 1900
1607 2 1810 1901
1608 2 1810 1906
1609 4 1845 1857
1610 5 1845 1905
1611 5 1845 1906
1612 6 1857 1244
1613 6 1857 1667
1614 3 1612 1660
1615 3 1618 1666
1616 1 1807 1884
1617 2 1807 1897
1618 2 1807 1902
1619 2 1807 1908
1620 1 1808 1884
1621 2 1808 1898
1622 2 1808 1904
1623 2 1808 1905
1624 1 1809 1884
1625 2 1809 1899
1626 2 1809 1903
1627 2 1809 1907
1628 3 1829 1877
1629 4 1841 1853
1630 5 1841 1897
1631 5 1841 1898
1632 4 1844 1856
1633 5 1844 1903
1634 5 1844 1904
1635 6 1853 1660
1636 6 1853 1765
1637 6 1856 1666
1638 6 1856 1877
1639 3 1832 1880
1640 4 571 583
1641 5 571 629
1642 5 571 630
1643 6 583 498
1644 6 583 1875
1645 3 544 592
1646 3 553 601
1647 3 561 609
1648 4 570 582
1649 5 570 627
1650 5 570 628
1651 4 574 586
1652 5 574 635
1653 5 574 636
1654 6 582 601
1655 6 582 1874
1656 6 586 504
1657 6 586 609
1658 6 592 609
1659 3 539 587
1660 3 550 598
1661 3 555 603
1662 6 598 603
1663 3 554 602
1664 3 1189 1237
1665 4 1206 1218
1666 5 1206 1263
1667 5 1206 1264
1668 4 1207 1219
1669 5 1207 1265
1670 5 1207 1266
1671 4 1210 1222
1672 5 1210 1271
1673 5 1210 1272
1674 6 1218 602
1675 6 1218 1237
1676 6 1219 603
1677 6 1219 1134
1678 3 1175 1223
1679 3 1180 1228
1680 3 1197 1245
1681 6 1222 1140
1682 6 1222 1245
1683 6 1228 1245
1684 3 1186 1234
1685 3 1190 1238
1686 3 1191 1239
1687 6 1234 1239
1688 4 1843 1855
1689 5 1843 1901
1690 5 1843 1902
1691 6 1855 1239
1692 6 1855 1770
1693 3 1825 1873
1694 3 1833 1881
1695 4 1842 1854
1696 5 1842 1899
1697 5 1842 1900
1698 4 1846 1858
1699 5 1846 1907
1700 5 1846 1908
1701 6 1854 1238
1702 6 1854 1873
1703 6 1858 1776
1704 6 1858 1881
1705 6 1864 1881
1706 3 1811 1859
1707 3 1816 1864
1708 3 1822 1870
1709 6 1870 1875
1710 3 1826 1874
1711 3 1827 1875
1712 3 559 607
1713 3 552 600
1714 3 558 606
1715 6 587 600
1716 3 1188 1236
1717 3 1195 1243
1718 6 1223 1236
1719 3 1194 1242
1720 3 1824 1872
1721 3 1830 1878
1722 3 1831 1879
1723 6 1859 1872
1724 7 1930 1931
1725 7 1930 1932
1726 7 1924 1925
1727 7 1924 1926
1728 3 116 164
1729 3 123 171
1730 3 127 175
1731 6 164 175
1732 6 171 181
1733 3 122 170
1734 6 170 184
1735 3 759 807
1736 6 807 817
1737 3 752 800
1738 3 758 806
1739 3 763 811
1740 6 800 811
1741 6 806 820
1742 3 1388 1436
1743 3 1395 1443
1744 3 1399 1447
1745 6 1436 1447
1746 6 1443 1453
1747 7 1963 1964
1748 7 1963 1965
1749 3 1394 1442
1750 6 1442 1456
1751 3 117 165
1752 6 165 177
1753 7 1939 1940
1754 7 1939 1941
1755 7 1942 1943
1756 7 1942 1944
1757 3 121 169
1758 3 125 173
1759 3 132 180
1760 6 173 180
1761 1 110 187
1762 2 110 192
1763 2 110 193
1764 2 110 198
1765 3 118 166
1766 3 119 167
1767 3 124 172
1768 3 138 186
1769 4 141 153
1770 5 141 193
1771 5 141 194
1772 6 153 62
1773 6 153 167
1774 6 166 178
1775 6 167 186
1776 1 107 187
1777 2 107 189
1778 2 107 194
1779 2 107 200
1780 1 109 187
1781 2 109 191
1782 2 109 195
1783 2 109 199
1784 4 140 152
1785 5 140 191
1786 5 140 192
1787 4 144 156
1788 5 144 199
1789 5 144 200
1790 6 152 166
1791 6 152 801
1792 6 156 68
1793 6 156 809
1794 3 753 801
1795 3 757 805
1796 3 761 809
1797 3 768 816
1798 6 801 813
1799 6 809 816
1800 3 755 803
1801 3 760 808
1802 3 774 822
1803 6 803 822
1804 1 743 823
1805 2 743 825
1806 2 743 830
1807 2 743 836
1808 1 745 823
1809 2 745 827
1810 2 745 831
1811 2 745 835
1812 1 746 823
1813 2 746 828
1814 2 746 829
1815 2 746 834
1816 3 754 802
1817 4 776 788
1818 5 776 827
1819 5 776 828
1820 4 777 789
1821 5 777 829
1822 5 777 830
1823 4 780 792
1824 5 780 835
1825 5 780 836
1826 6 788 802
1827 6 788 1437
1828 6 789 698
1829 6 789 803
1830 6 802 814
1831 3 1389 1437
1832 6 1437 1449
1833 6 792 704
1834 6 792 1445
1835 3 1393 1441
1836 3 1397 1445
1837 3 1404 1452
1838 6 1445 1452
1839 1 1382 1459
1840 2 1382 1464
1841 2 1382 1465
1842 2 1382 1470
1843 3 1390 1438
1844 3 1391 1439
1845 3 1396 1444
1846 3 1410 1458
1847 4 1413 1425
1848 5 1413 1465
1849 5 1413 1466
1850 6 1425 1334
1851 6 1425 1439
1852 6 1439 1458
1853 7 1918 1919
1854 7 1918 1920
1855 7 1951 1952
1856 7 1951 1953
1857 1 1379 1459
1858 2 1379 1461
1859 2 1379 1466
1860 2 1379 1472
1861 1 1381 1459
1862 2 1381 1463
1863 2 1381 1467
1864 2 1381 1471
1865 4 1412 1424
1866 5 1412 1463
1867 5 1412 1464
1868 4 1416 1428
1869 5 1416 1471
1870 5 1416 1472
1871 6 1424 165
1872 6 1424 1438
1873 6 1428 173
1874 6 1428 1340
1875 6 1438 1450
1876 6 169 183
1877 4 143 155
1878 5 143 197
1879 5 143 198
1880 6 155 172
1881 6 155 383
1882 6 172 182
1883 3 335 383
1884 6 383 393
1885 1 108 187
1886 2 108 190
1887 2 108 196
1888 2 108 197
1889 4 139 151
1890 5 139 189
1891 5 139 190
1892 4 142 154
1893 5 142 195
1894 5 142 196
1895 6 151 57
1896 6 151 376
1897 6 154 382
1898 6 154 805
1899 3 328 376
1900 3 334 382
1901 3 339 387
1902 6 376 387
1903 6 382 396
1904 6 805 819
1905 6 808 818
1906 1 744 823
1907 2 744 826
1908 2 744 832
1909 2 744 833
1910 4 775 787
1911 5 775 825
1912 5 775 826
1913 4 778 790
1914 5 778 831
1915 5 778 832
1916 4 779 791
1917 5 779 833
1918 5 779 834
1919 6 787 693
1920 6 787 1012
1921 6 791 808
1922 6 791 1019
1923 3 964 1012
1924 3 971 1019
1925 3 975 1023
1926 6 1012 1023
1927 6 1019 1029
1928 6 790 1018
1929 6 790 1441
1930 3 970 1018
1931 6 1018 1032
1932 6 1441 1455
1933 4 1415 1427
1934 5 1415 1469
1935 5 1415 1470
1936 6 1427 1444
1937 6 1427 1655
1938 6 1444 1454
1939 3 1607 1655
1940 6 1655 1665
1941 1 1380 1459
1942 2 1380 1462
1943 2 1380 1468
1944 2 1380 1469
1945 4 1411 1423
1946 5 1411 1461
1947 5 1411 1462
1948 4 1414 1426
1949 5 1414 1467
1950 5 1414 1468
1951 6 1423 1329
1952 6 1423 1648
1953 6 1426 169
1954 6 1426 1654
1955 3 1600 1648
1956 3 1606 1654
1957 3 1611 1659
1958 6 1648 1659
1959 6 1654 1668
1960 6 377 389
1961 3 329 377
1962 3 337 385
1963 3 344 392
1964 6 385 392
1965 3 331 379
1966 3 350 398
1967 6 365 274
1968 6 365 379
1969 6 379 398
1970 1 321 399
1971 2 321 403
1972 2 321 407
1973 2 321 411
1974 1 322 399
1975 2 322 404
1976 2 322 405
1977 2 322 410
1978 3 330 378
1979 4 352 364
1980 5 352 403
1981 5 352 404
1982 4 353 365
1983 5 353 405
1984 5 353 406
1985 4 356 368
1986 5 356 411
1987 5 356 412
1988 6 364 378
1989 6 364 1013
1990 6 368 280
1991 6 368 1021
1992 6 378 390
1993 3 965 1013
1994 6 1013 1025
1995 3 973 1021
1996 3 980 1028
1997 6 1021 1028
1998 1 958 1035
1999 2 958 1040
2000 2 958 1041
2001 2 958 1046
2002 3 966 1014
2003 3 967 1015
2004 3 986 1034
2005 4 988 1000
2006 5 988 1039
2007 5 988 1040
2008 4 989 1001
2009 5 989 1041
2010 5 989 1042
2011 6 1000 1014
2012 6 1000 1649
2013 6 1001 910
2014 6 1001 1015
2015 6 1014 1026
2016 6 1015 1034
2017 1 957 1035
2018 2 957 1039
2019 2 957 1043
2020 2 957 1047
2021 4 992 1004
2022 5 992 1047
2023 5 992 1048
2024 6 1004 916
2025 6 1004 1657
2026 3 1601 1649
2027 3 1609 1657
2028 3 1616 1664
2029 6 1649 1661
2030 6 1657 1664
2031 3 1603 1651
2032 3 1622 1670
2033 6 1637 1546
2034 6 1637 1651
2035 6 1651 1670
2036 1 1593 1671
2037 2 1593 1675
2038 2 1593 1679
2039 2 1593 1683
2040 1 1594 1671
2041 2 1594 1676
2042 2 1594 1677
2043 2 1594 1682
2044 3 1602 1650
2045 4 1624 1636
2046 5 1624 1675
2047 5 1624 1676
2048 4 1625 1637
2049 5 1625 1677
2050 5 1625 1678
2051 4 1628 1640
2052 5 1628 1683
2053 5 1628 1684
2054 6 1636 377
2055 6 1636 1650
2056 6 1640 385
2057 6 1640 1552
2058 6 1650 1662
2059 3 333 381
2060 6 381 395
2061 3 336 384
2062 6 367 384
2063 6 367 595
2064 6 384 394
2065 3 547 595
2066 6 595 605
2067 7 1948 1949
2068 7 1948 1950
2069 1 319 399
2070 2 319 401
2071 2 319 406
2072 2 319 412
2073 1 320 399
2074 2 320 402
2075 2 320 408
2076 2 320 409
2077 4 351 363
2078 5 351 401
2079 5 351 402
2080 4 354 366
2081 5 354 407
2082 5 354 408
2083 4 355 367
2084 5 355 409
2085 5 355 410
2086 6 363 269
2087 6 363 588
2088 6 366 594
2089 6 366 1017
2090 3 540 588
2091 3 546 594
2092 6 588 599
2093 6 594 608
2094 3 969 1017
2095 6 1017 1031
2096 1 955 1035
2097 2 955 1037
2098 2 955 1042
2099 2 955 1048
2100 1 956 1035
2101 2 956 1038
2102 2 956 1044
2103 2 956 1045
2104 3 972 1020
2105 4 987 999
2106 5 987 1037
2107 5 987 1038
2108 4 991 1003
2109 5 991 1045
2110 5 991 1046
2111 6 999 905
2112 6 999 1224
2113 6 1003 1020
2114 6 1003 1231
2115 6 1020 1030
2116 3 1176 1224
2117 3 1183 1231
2118 6 1224 1235
2119 6 1231 1241
2120 4 990 1002
2121 5 990 1043
2122 5 990 1044
2123 6 1002 1230
2124 6 1002 1653
2125 3 1182 1230
2126 6 1230 1244
2127 3 1605 1653
2128 6 1653 1667
2129 3 1608 1656
2130 6 1639 1656
2131 6 1639 1867
2132 6 1656 1666
2133 6 1867 1877
2134 1 1591 1671
2135 2 1591 1673
2136 2 1591 1678
2137 2 1591 1684
2138 1 1592 1671
2139 2 1592 1674
2140 2 1592 1680
2141 2 1592 1681
2142 4 1623 1635
2143 5 1623 1673
2144 5 1623 1674
2145 4 1626 1638
2146 5 1626 1679
2147 5 1626 1680
2148 4 1627 1639
2149 5 1627 1681
2150 5 1627 1682
2151 6 1635 1541
2152 6 1635 1860
2153 6 1638 381
2154 6 1638 1866
2155 3 1812 1860
2156 3 1818 1866
2157 3 1819 1867
2158 6 1860 1871
2159 6 1866 1880
2160 3 541 589
2161 3 549 597
2162 3 556 604
2163 6 589 601
2164 6 597 604
2165 3 543 591
2166 3 551 599
2167 3 562 610
2168 6 591 610
2169 3 542 590
2170 4 564 576
2171 5 564 615
2172 5 564 616
2173 6 576 590
2174 6 576 1225
2175 6 577 486
2176 6 577 591
2177 6 590 602
2178 3 1177 1225
2179 6 1225 1237
2180 6 580 492
2181 6 580 1233
2182 3 1185 1233
2183 3 1187 1235
2184 3 1192 1240
2185 6 1233 1240
2186 3 1178 1226
2187 3 1179 1227
2188 3 1198 1246
2189 6 1213 1122
2190 6 1213 1227
2191 6 1227 1246
2192 4 1200 1212
2193 5 1200 1251
2194 5 1200 1252
2195 6 1212 1226
2196 6 1212 1861
2197 6 1216 1128
2198 6 1216 1869
2199 6 1226 1238
2200 3 1813 1861
2201 3 1821 1869
2202 6 1861 1873
2203 6 1869 1876
2204 3 1823 1871
2205 3 1828 1876
2206 3 1834 1882
2207 3 1814 1862
2208 3 1815 1863
2209 4 1836 1848
2210 5 1836 1887
2211 5 1836 1888
2212 6 1848 589
2213 6 1848 1862
2214 6 1849 1758
2215 6 1849 1863
2216 6 1862 1874
2217 6 1863 1882
2218 6 1852 597
2219 6 1852 1764
2220 3 545 593
2221 6 593 607
2222 3 548 596
2223 6 596 606
2224 1 531 611
2225 2 531 613
2226 2 531 618
2227 2 531 624
2228 1 532 611
2229 2 532 614
2230 2 532 620
2231 2 532 621
2232 1 533 611
2233 2 533 615
2234 2 533 619
2235 2 533 623
2236 1 534 611
2237 2 534 616
2238 2 534 617
2239 2 534 622
2240 4 563 575
2241 5 563 613
2242 5 563 614
2243 4 565 577
2244 5 565 617
2245 5 565 618
2246 4 566 578
2247 5 566 619
2248 5 566 620
2249 4 567 579
2250 5 567 621
2251 5 567 622
2252 4 568 580
2253 5 568 623
2254 5 568 624
2255 6 575 164
2256 6 575 481
2257 6 579 171
2258 6 579 596
2259 6 578 170
2260 6 578 1229
2261 3 1181 1229
2262 6 1229 1243
2263 1 1170 1247
2264 2 1170 1252
2265 2 1170 1253
2266 2 1170 1258
2267 3 1184 1232
2268 4 1201 1213
2269 5 1201 1253
2270 5 1201 1254
2271 4 1203 1215
2272 5 1203 1257
2273 5 1203 1258
2274 6 1215 807
2275 6 1215 1232
2276 6 1232 1242
2277 1 1167 1247
2278 2 1167 1249
2279 2 1167 1254
2280 2 1167 1260
2281 1 1168 1247
2282 2 1168 1250
2283 2 1168 1256
2284 2 1168 1257
2285 1 1169 1247
2286 2 1169 1251
2287 2 1169 1255
2288 2 1169 1259
2289 4 1199 1211
2290 5 1199 1249
2291 5 1199 1250
2292 4 1202 1214
2293 5 1202 1255
2294 5 1202 1256
2295 4 1204 1216
2296 5 1204 1259
2297 5 1204 1260
2298 6 1211 800
2299 6 1211 1117
2300 6 1214 806
2301 6 1214 1865
2302 3 1817 1865
2303 6 1865 1879
2304 7 1954 1955
2305 7 1954 1956
2306 1 1803 1883
2307 2 1803 1885
2308 2 1803 1890
2309 2 1803 1896
2310 1 1804 1883
2311 2 1804 1886
2312 2 1804 1892
2313 2 1804 1893
2314 1 1805 1883
2315 2 1805 1887
2316 2 1805 1891
2317 2 1805 1895
2318 1 1806 1883
2319 2 1806 1888
2320 2 1806 1889
2321 2 1806 1894
2322 3 1820 1868
2323 4 1835 1847
2324 5 1835 1885
2325 5 1835 1886
2326 4 1837 1849
2327 5 1837 1889
2328 5 1837 1890
2329 4 1839 1851
2330 5 1839 1893
2331 5 1839 1894
2332 6 1847 1436
2333 6 1847 1753
2334 6 1851 1443
2335 6 1851 1868
2336 6 1868 1878
2337 4 1838 1850
2338 5 1838 1891
2339 5 1838 1892
2340 4 1840 1852
2341 5 1840 1895
2342 5 1840 1896
2343 6 1850 593
2344 6 1850 1442

Angles

1 3 53 41 99
2 3 53 41 100
3 4 99 41 100
4 3 55 43 103
5 3 55 43 104
6 4 103 43 104
7 5 43 55 501
8 5 43 55 1350
9 6 501 55 1350
10 9 8 99 41
11 9 8 104 43
12 1 82 5 95
13 1 82 5 100
14 1 82 5 106
15 2 95 5 100
16 2 95 5 106
17 2 100 5 106
18 1 82 6 96
19 1 82 6 102
20 1 82 6 103
21 2 96 6 102
22 2 96 6 103
23 2 102 6 103
24 1 82 7 97
25 1 82 7 101
26 1 82 7 105
27 2 97 7 101
28 2 97 7 105
29 2 101 7 105
30 1 82 8 98
31 1 82 8 99
32 1 82 8 104
33 2 98 8 99
34 2 98 8 104
35 2 99 8 104
36 3 51 39 95
37 3 51 39 96
38 4 95 39 96
39 3 54 42 101
40 3 54 42 102
41 4 101 42 102
42 3 56 44 105
43 3 56 44 106
44 4 105 44 106
45 5 39 51 175
46 5 39 51 494
47 6 175 51 494
48 5 42 54 75
49 5 42 54 500
50 6 75 54 500
51 7 27 75 54
52 7 27 75 65
53 6 54 75 65
54 8 5 82 6
55 8 5 82 7
56 8 5 82 8
57 8 6 82 7
58 8 6 82 8
59 8 7 82 8
60 9 5 95 39
61 9 6 96 39
62 9 5 100 41
63 9 7 101 42
64 9 6 102 42
65 9 6 103 43
66 9 7 105 44
67 9 5 106 44
68 7 30 78 691
69 7 30 78 64
70 6 691 78 64
71 1 718 641 731
72 1 718 641 736
73 1 718 641 742
74 2 731 641 736
75 2 731 641 742
76 2 736 641 742
77 1 718 642 732
78 1 718 642 738
79 1 718 642 739
80 2 732 642 738
81 2 732 642 739
82 2 738 642 739
83 1 718 644 734
84 1 718 644 735
85 1 718 644 740
86 2 734 644 735
87 2 734 644 740
88 2 735 644 740
89 3 687 675 731
90 3 687 675 732
91 4 731 675 732
92 3 689 677 735
93 3 689 677 736
94 4 735 677 736
95 3 691 679 739
96 3 691 679 740
97 4 739 679 740
98 5 675 687 811
99 5 675 687 1130
100 6 811 687 1130
101 5 679 691 1137
102 5 679 691 78
103 6 1137 691 78
104 8 641 718 642
105 8 641 718 643
106 8 641 718 644
107 8 642 718 643
108 8 642 718 644
109 8 643 718 644
110 9 641 731 675
111 9 642 732 675
112 9 644 735 677
113 9 641 736 677
114 9 642 739 679
115 9 644 740 679
116 1 718 643 733
117 1 718 643 737
118 1 718 643 741
119 2 733 643 737
120 2 733 643 741
121 2 737 643 741
122 3 690 678 737
123 3 690 678 738
124 4 737 678 738
125 3 692 680 741
126 3 692 680 742
127 4 741 680 742
128 5 678 690 711
129 5 678 690 1136
130 6 711 690 1136
131 7 663 711 690
132 7 663 711 701
133 6 690 711 701
134 9 643 737 678
135 9 642 738 678
136 9 643 741 680
137 9 641 742 680
138 7 666 714 1327
139 7 666 714 700
140 6 1327 714 700
141 5 1315 1327 1773
142 5 1315 1327 714
143 6 1773 1327 714
144 9 1280 1371 1313
145 9 1280 1376 1315
146 1 1354 1277 1367
147 1 1354 1277 1372
148 1 1354 1277 1378
149 2 1367 1277 1372
150 2 1367 1277 1378
151 2 1372 1277 1378
152 1 1354 1278 1368
153 1 1354 1278 1374
154 1 1354 1278 1375
155 2 1368 1278 1374
156 2 1368 1278 1375
157 2 1374 1278 1375
158 1 1354 1279 1369
159 1 1354 1279 1373
160 1 1354 1279 1377
161 2 1369 1279 1373
162 2 1369 1279 1377
163 2 1373 1279 1377
164 1 1354 1280 1370
165 1 1354 1280 1371
166 1 1354 1280 1376
167 2 1370 1280 1371
168 2 1370 1280 1376
169 2 1371 1280 1376
170 3 1323 1311 1367
171 3 1323 1311 1368
172 4 1367 1311 1368
173 3 1325 1313 1371
174 3 1325 1313 1372
175 4 1371 1313 1372
176 3 1326 1314 1373
177 3 1326 1314 1374
178 4 1373 1314 1374
179 3 1327 1315 1375
180 3 1327 1315 1376
181 4 1375 1315 1376
182 3 1328 1316 1377
183 3 1328 1316 1378
184 4 1377 1316 1378
185 5 1311 1323 1447
186 5 1311 1323 1766
187 6 1447 1323 1766
188 5 1314 1326 1347
189 5 1314 1326 1772
190 6 1347 1326 1772
191 8 1277 1354 1278
192 8 1277 1354 1279
193 8 1277 1354 1280
194 8 1278 1354 1279
195 8 1278 1354 1280
196 8 1279 1354 1280
197 9 1277 1367 1311
198 9 1278 1368 1311
199 9 1277 1372 1313
200 9 1279 1373 1314
201 9 1278 1374 1314
202 9 1278 1375 1315
203 9 1279 1377 1316
204 9 1277 1378 1316
205 7 1299 1347 1326
206 7 1299 1347 1337
207 6 1326 1347 1337
208 7 1302 1350 55
209 7 1302 1350 1336
210 6 55 1350 1336
211 5 41 53 1345
212 5 41 53 180
213 6 1345 53 180
214 3 52 40 97
215 3 52 40 98
216 4 97 40 98
217 5 40 52 71
218 5 40 52 1344
219 6 71 52 1344
220 5 44 56 79
221 5 44 56 186
222 6 79 56 186
223 7 23 71 52
224 7 23 71 59
225 6 52 71 59
226 7 31 79 56
227 7 31 79 62
228 6 56 79 62
229 9 7 97 40
230 9 8 98 40
231 7 14 62 153
232 7 14 62 79
233 6 153 62 79
234 7 20 68 156
235 7 20 68 73
236 6 156 68 73
237 7 24 72 688
238 7 24 72 60
239 6 688 72 60
240 7 25 73 689
241 7 25 73 68
242 6 689 73 68
243 3 688 676 733
244 3 688 676 734
245 4 733 676 734
246 5 676 688 707
247 5 676 688 72
248 6 707 688 72
249 5 677 689 73
250 5 677 689 816
251 6 73 689 816
252 7 659 707 688
253 7 659 707 695
254 6 688 707 695
255 9 643 733 676
256 9 644 734 676
257 5 680 692 715
258 5 680 692 822
259 6 715 692 822
260 7 650 698 789
261 7 650 698 715
262 6 789 698 715
263 7 667 715 692
264 7 667 715 698
265 6 692 715 698
266 7 656 704 792
267 7 656 704 709
268 6 792 704 709
269 7 661 709 1325
270 7 661 709 704
271 6 1325 709 704
272 5 1313 1325 709
273 5 1313 1325 1452
274 6 709 1325 1452
275 7 660 708 1324
276 7 660 708 696
277 6 1324 708 696
278 3 1324 1312 1369
279 3 1324 1312 1370
280 4 1369 1312 1370
281 5 1312 1324 1343
282 5 1312 1324 708
283 6 1343 1324 708
284 5 1316 1328 1351
285 5 1316 1328 1458
286 6 1351 1328 1458
287 7 1295 1343 1324
288 7 1295 1343 1331
289 6 1324 1343 1331
290 9 1279 1369 1312
291 9 1280 1370 1312
292 7 1286 1334 1425
293 7 1286 1334 1351
294 6 1425 1334 1351
295 7 1303 1351 1328
296 7 1303 1351 1334
297 6 1328 1351 1334
298 7 1292 1340 1428
299 7 1292 1340 1345
300 6 1428 1340 1345
301 7 1296 1344 52
302 7 1296 1344 1332
303 6 52 1344 1332
304 7 1297 1345 53
305 7 1297 1345 1340
306 6 53 1345 1340
307 7 9 57 151
308 7 9 57 70
309 6 151 57 70
310 7 22 70 263
311 7 22 70 57
312 6 263 70 57
313 7 29 77 267
314 7 29 77 63
315 6 267 77 63
316 1 294 217 307
317 1 294 217 312
318 1 294 217 318
319 2 307 217 312
320 2 307 217 318
321 2 312 217 318
322 1 294 218 308
323 1 294 218 314
324 1 294 218 315
325 2 308 218 314
326 2 308 218 315
327 2 314 218 315
328 3 263 251 307
329 3 263 251 308
330 4 307 251 308
331 3 266 254 313
332 3 266 254 314
333 4 313 254 314
334 3 267 255 315
335 3 267 255 316
336 4 315 255 316
337 5 251 263 387
338 5 251 263 70
339 6 387 263 70
340 5 255 267 77
341 5 255 267 1562
342 6 77 267 1562
343 8 217 294 218
344 8 217 294 219
345 8 217 294 220
346 8 218 294 219
347 8 218 294 220
348 8 219 294 220
349 9 217 307 251
350 9 218 308 251
351 9 219 313 254
352 9 218 314 254
353 9 218 315 255
354 9 220 316 255
355 7 28 76 266
356 7 28 76 66
357 6 266 76 66
358 5 254 266 287
359 5 254 266 76
360 6 287 266 76
361 7 239 287 266
362 7 239 287 277
363 6 266 287 277
364 7 242 290 903
365 7 242 290 276
366 6 903 290 276
367 7 665 713 903
368 7 665 713 699
369 6 903 713 699
370 3 903 891 951
371 3 903 891 952
372 4 951 891 952
373 5 891 903 713
374 5 891 903 290
375 6 713 903 290
376 9 854 951 891
377 9 856 952 891
378 7 645 693 787
379 7 645 693 706
380 6 787 693 706
381 7 658 706 899
382 7 658 706 693
383 6 899 706 693
384 7 664 712 902
385 7 664 712 702
386 6 902 712 702
387 1 930 853 943
388 1 930 853 948
389 1 930 853 954
390 2 943 853 948
391 2 943 853 954
392 2 948 853 954
393 1 930 854 944
394 1 930 854 950
395 1 930 854 951
396 2 944 854 950
397 2 944 854 951
398 2 950 854 951
399 3 899 887 943
400 3 899 887 944
401 4 943 887 944
402 3 902 890 949
403 3 902 890 950
404 4 949 890 950
405 5 887 899 1023
406 5 887 899 706
407 6 1023 899 706
408 5 890 902 923
409 5 890 902 712
410 6 923 902 712
411 7 875 923 902
412 7 875 923 913
413 6 902 923 913
414 8 853 930 854
415 8 853 930 855
416 8 853 930 856
417 8 854 930 855
418 8 854 930 856
419 8 855 930 856
420 9 853 943 887
421 9 854 944 887
422 9 855 949 890
423 9 854 950 890
424 7 878 926 1539
425 7 878 926 912
426 6 1539 926 912
427 7 1281 1329 1423
428 7 1281 1329 1342
429 6 1423 1329 1342
430 7 1294 1342 1535
431 7 1294 1342 1329
432 6 1535 1342 1329
433 7 1301 1349 1539
434 7 1301 1349 1335
435 6 1539 1349 1335
436 1 1566 1489 1579
437 1 1566 1489 1584
438 1 1566 1489 1590
439 2 1579 1489 1584
440 2 1579 1489 1590
441 2 1584 1489 1590
442 1 1566 1490 1580
443 1 1566 1490 1586
444 1 1566 1490 1587
445 2 1580 1490 1586
446 2 1580 1490 1587
447 2 1586 1490 1587
448 3 1535 1523 1579
449 3 1535 1523 1580
450 4 1579 1523 1580
451 3 1538 1526 1585
452 3 1538 1526 1586
453 4 1585 1526 1586
454 3 1539 1527 1587
455 3 1539 1527 1588
456 4 1587 1527 1588
457 5 1523 1535 1659
458 5 1523 1535 1342
459 6 1659 1535 1342
460 5 1527 1539 1349
461 5 1527 1539 926
462 6 1349 1539 926
463 8 1489 1566 1490
464 8 1489 1566 1491
465 8 1489 1566 1492
466 8 1490 1566 1491
467 8 1490 1566 1492
468 8 1491 1566 1492
469 9 1489 1579 1523
470 9 1490 1580 1523
471 9 1490 1586 1526
472 9 1490 1587 1527
473 9 1492 1588 1527
474 7 1300 1348 1538
475 7 1300 1348 1338
476 6 1538 1348 1338
477 5 1526 1538 1559
478 5 1526 1538 1348
479 6 1559 1538 1348
480 7 1511 1559 1538
481 7 1511 1559 1549
482 6 1538 1559 1549
483 9 1491 1585 1526
484 7 1514 1562 267
485 7 1514 1562 1548
486 6 267 1562 1548
487 1 294 219 309
488 1 294 219 313
489 1 294 219 317
490 2 309 219 313
491 2 309 219 317
492 2 313 219 317
493 1 294 220 310
494 1 294 220 311
495 1 294 220 316
496 2 310 220 311
497 2 310 220 316
498 2 311 220 316
499 3 264 252 309
500 3 264 252 310
501 4 309 252 310
502 3 265 253 311
503 3 265 253 312
504 4 311 253 312
505 3 268 256 317
506 3 268 256 318
507 4 317 256 318
508 5 252 264 283
509 5 252 264 1556
510 6 283 264 1556
511 5 253 265 1557
512 5 253 265 392
513 6 1557 265 392
514 7 235 283 264
515 7 235 283 271
516 6 264 283 271
517 9 219 309 252
518 9 220 310 252
519 9 220 311 253
520 9 217 312 253
521 9 219 317 256
522 9 217 318 256
523 5 256 268 291
524 5 256 268 398
525 6 291 268 398
526 7 226 274 365
527 7 226 274 291
528 6 365 274 291
529 7 243 291 268
530 7 243 291 274
531 6 268 291 274
532 7 232 280 368
533 7 232 280 285
534 6 368 280 285
535 7 236 284 900
536 7 236 284 272
537 6 900 284 272
538 7 237 285 901
539 7 237 285 280
540 6 901 285 280
541 1 930 856 946
542 1 930 856 947
543 1 930 856 952
544 2 946 856 947
545 2 946 856 952
546 2 947 856 952
547 3 901 889 947
548 3 901 889 948
549 4 947 889 948
550 5 889 901 285
551 5 889 901 1028
552 6 285 901 1028
553 9 856 946 888
554 9 856 947 889
555 9 853 948 889
556 1 930 855 945
557 1 930 855 949
558 1 930 855 953
559 2 945 855 949
560 2 945 855 953
561 2 949 855 953
562 3 900 888 945
563 3 900 888 946
564 4 945 888 946
565 3 904 892 953
566 3 904 892 954
567 4 953 892 954
568 5 888 900 919
569 5 888 900 284
570 6 919 900 284
571 5 892 904 927
572 5 892 904 1034
573 6 927 904 1034
574 7 862 910 1001
575 7 862 910 927
576 6 1001 910 927
577 7 871 919 900
578 7 871 919 907
579 6 900 919 907
580 7 879 927 904
581 7 879 927 910
582 6 904 927 910
583 9 855 945 888
584 9 855 953 892
585 9 853 954 892
586 7 868 916 1004
587 7 868 916 921
588 6 1004 916 921
589 7 873 921 1537
590 7 873 921 916
591 6 1537 921 916
592 7 872 920 1536
593 7 872 920 908
594 6 1536 920 908
595 1 1566 1491 1581
596 1 1566 1491 1585
597 1 1566 1491 1589
598 2 1581 1491 1585
599 2 1581 1491 1589
600 2 1585 1491 1589
601 1 1566 1492 1582
602 1 1566 1492 1583
603 1 1566 1492 1588
604 2 1582 1492 1583
605 2 1582 1492 1588
606 2 1583 1492 1588
607 3 1536 1524 1581
608 3 1536 1524 1582
609 4 1581 1524 1582
610 3 1537 1525 1583
611 3 1537 1525 1584
612 4 1583 1525 1584
613 3 1540 1528 1589
614 3 1540 1528 1590
615 4 1589 1528 1590
616 5 1524 1536 1555
617 5 1524 1536 920
618 6 1555 1536 920
619 5 1525 1537 921
620 5 1525 1537 1664
621 6 921 1537 1664
622 7 1507 1555 1536
623 7 1507 1555 1543
624 6 1536 1555 1543
625 9 1491 1581 1524
626 9 1492 1582 1524
627 9 1492 1583 1525
628 9 1489 1584 1525
629 9 1489 1590 1528
630 5 1528 1540 1563
631 5 1528 1540 1670
632 6 1563 1540 1670
633 7 1498 1546 1637
634 7 1498 1546 1563
635 6 1637 1546 1563
636 7 1515 1563 1540
637 7 1515 1563 1546
638 6 1540 1563 1546
639 9 1491 1589 1528
640 7 1504 1552 1640
641 7 1504 1552 1557
642 6 1640 1552 1557
643 7 1509 1557 265
644 7 1509 1557 1552
645 6 265 1557 1552
646 7 1508 1556 264
647 7 1508 1556 1544
648 6 264 1556 1544
649 7 221 269 363
650 7 221 269 282
651 6 363 269 282
652 7 234 282 475
653 7 234 282 269
654 6 475 282 269
655 7 241 289 479
656 7 241 289 275
657 6 479 289 275
658 1 506 430 520
659 1 506 430 526
660 1 506 430 527
661 2 520 430 526
662 2 520 430 527
663 2 526 430 527
664 3 475 463 519
665 3 475 463 520
666 4 519 463 520
667 3 479 467 527
668 3 479 467 528
669 4 527 467 528
670 5 463 475 599
671 5 463 475 282
672 6 599 475 282
673 5 467 479 289
674 5 467 479 1774
675 6 289 479 1774
676 9 429 519 463
677 9 430 520 463
678 9 430 527 467
679 7 240 288 478
680 7 240 288 278
681 6 478 288 278
682 3 478 466 525
683 3 478 466 526
684 4 525 466 526
685 5 466 478 499
686 5 466 478 288
687 6 499 478 288
688 7 451 499 478
689 7 451 499 489
690 6 478 499 489
691 9 430 526 466
692 7 454 502 1115
693 7 454 502 488
694 6 1115 502 488
695 7 877 925 1115
696 7 877 925 911
697 6 1115 925 911
698 5 1103 1115 925
699 5 1103 1115 502
700 6 925 1115 502
701 7 857 905 999
702 7 857 905 918
703 6 999 905 918
704 7 870 918 1111
705 7 870 918 905
706 6 1111 918 905
707 7 876 924 1114
708 7 876 924 914
709 6 1114 924 914
710 1 1142 1066 1156
711 1 1142 1066 1162
712 1 1142 1066 1163
713 2 1156 1066 1162
714 2 1156 1066 1163
715 2 1162 1066 1163
716 3 1111 1099 1155
717 3 1111 1099 1156
718 4 1155 1099 1156
719 3 1114 1102 1161
720 3 1114 1102 1162
721 4 1161 1102 1162
722 3 1115 1103 1163
723 3 1115 1103 1164
724 4 1163 1103 1164
725 5 1099 1111 1235
726 5 1099 1111 918
727 6 1235 1111 918
728 5 1102 1114 1135
729 5 1102 1114 924
730 6 1135 1114 924
731 9 1065 1155 1099
732 9 1066 1156 1099
733 9 1066 1162 1102
734 9 1066 1163 1103
735 7 1087 1135 1114
736 7 1087 1135 1125
737 6 1114 1135 1125
738 7 1090 1138 1751
739 7 1090 1138 1124
740 6 1751 1138 1124
741 7 1493 1541 1635
742 7 1493 1541 1554
743 6 1635 1541 1554
744 7 1506 1554 1747
745 7 1506 1554 1541
746 6 1747 1554 1541
747 7 1513 1561 1751
748 7 1513 1561 1547
749 6 1751 1561 1547
750 1 1778 1702 1792
751 1 1778 1702 1798
752 1 1778 1702 1799
753 2 1792 1702 1798
754 2 1792 1702 1799
755 2 1798 1702 1799
756 3 1747 1735 1791
757 3 1747 1735 1792
758 4 1791 1735 1792
759 3 1751 1739 1799
760 3 1751 1739 1800
761 4 1799 1739 1800
762 5 1735 1747 1871
763 5 1735 1747 1554
764 6 1871 1747 1554
765 5 1739 1751 1561
766 5 1739 1751 1138
767 6 1561 1751 1138
768 9 1701 1791 1735
769 9 1702 1792 1735
770 9 1702 1799 1739
771 7 1512 1560 1750
772 7 1512 1560 1550
773 6 1750 1560 1550
774 3 1750 1738 1797
775 3 1750 1738 1798
776 4 1797 1738 1798
777 5 1738 1750 1771
778 5 1738 1750 1560
779 6 1771 1750 1560
780 7 1723 1771 1750
781 7 1723 1771 1761
782 6 1750 1771 1761
783 9 1702 1798 1738
784 7 1726 1774 479
785 7 1726 1774 1760
786 6 479 1774 1760
787 1 506 429 519
788 1 506 429 524
789 1 506 429 530
790 2 519 429 524
791 2 519 429 530
792 2 524 429 530
793 1 506 432 522
794 1 506 432 523
795 1 506 432 528
796 2 522 432 523
797 2 522 432 528
798 2 523 432 528
799 3 476 464 521
800 3 476 464 522
801 4 521 464 522
802 3 477 465 523
803 3 477 465 524
804 4 523 465 524
805 5 464 476 495
806 5 464 476 1768
807 6 495 476 1768
808 5 465 477 1769
809 5 465 477 604
810 6 1769 477 604
811 7 447 495 476
812 7 447 495 483
813 6 476 495 483
814 8 429 506 430
815 8 429 506 431
816 8 429 506 432
817 8 430 506 431
818 8 430 506 432
819 8 431 506 432
820 9 431 521 464
821 9 432 522 464
822 9 432 523 465
823 9 429 524 465
824 9 432 528 467
825 1 506 431 521
826 1 506 431 525
827 1 506 431 529
828 2 521 431 525
829 2 521 431 529
830 2 525 431 529
831 3 480 468 529
832 3 480 468 530
833 4 529 468 530
834 5 468 480 503
835 5 468 480 610
836 6 503 480 610
837 7 438 486 577
838 7 438 486 503
839 6 577 486 503
840 7 455 503 480
841 7 455 503 486
842 6 480 503 486
843 9 431 525 466
844 9 431 529 468
845 9 429 530 468
846 7 444 492 580
847 7 444 492 497
848 6 580 492 497
849 7 449 497 1113
850 7 449 497 492
851 6 1113 497 492
852 5 1101 1113 497
853 5 1101 1113 1240
854 6 497 1113 1240
855 9 1068 1159 1101
856 9 1068 1164 1103
857 7 448 496 1112
858 7 448 496 484
859 6 1112 496 484
860 1 1142 1065 1155
861 1 1142 1065 1160
862 1 1142 1065 1166
863 2 1155 1065 1160
864 2 1155 1065 1166
865 2 1160 1065 1166
866 1 1142 1067 1157
867 1 1142 1067 1161
868 1 1142 1067 1165
869 2 1157 1067 1161
870 2 1157 1067 1165
871 2 1161 1067 1165
872 1 1142 1068 1158
873 1 1142 1068 1159
874 1 1142 1068 1164
875 2 1158 1068 1159
876 2 1158 1068 1164
877 2 1159 1068 1164
878 3 1112 1100 1157
879 3 1112 1100 1158
880 4 1157 1100 1158
881 3 1113 1101 1159
882 3 1113 1101 1160
883 4 1159 1101 1160
884 3 1116 1104 1165
885 3 1116 1104 1166
886 4 1165 1104 1166
887 5 1100 1112 1131
888 5 1100 1112 496
889 6 1131 1112 496
890 5 1104 1116 1139
891 5 1104 1116 1246
892 6 1139 1116 1246
893 7 1083 1131 1112
894 7 1083 1131 1119
895 6 1112 1131 1119
896 8 1065 1142 1066
897 8 1065 1142 1067
898 8 1065 1142 1068
899 8 1066 1142 1067
900 8 1066 1142 1068
901 8 1067 1142 1068
902 9 1067 1157 1100
903 9 1068 1158 1100
904 9 1065 1160 1101
905 9 1067 1161 1102
906 9 1067 1165 1104
907 9 1065 1166 1104
908 7 1074 1122 1213
909 7 1074 1122 1139
910 6 1213 1122 1139
911 7 1091 1139 1116
912 7 1091 1139 1122
913 6 1116 1139 1122
914 7 1080 1128 1216
915 7 1080 1128 1133
916 6 1216 1128 1133
917 7 1084 1132 1748
918 7 1084 1132 1120
919 6 1748 1132 1120
920 7 1085 1133 1749
921 7 1085 1133 1128
922 6 1749 1133 1128
923 1 1778 1701 1791
924 1 1778 1701 1796
925 1 1778 1701 1802
926 2 1791 1701 1796
927 2 1791 1701 1802
928 2 1796 1701 1802
929 1 1778 1704 1794
930 1 1778 1704 1795
931 1 1778 1704 1800
932 2 1794 1704 1795
933 2 1794 1704 1800
934 2 1795 1704 1800
935 3 1748 1736 1793
936 3 1748 1736 1794
937 4 1793 1736 1794
938 3 1749 1737 1795
939 3 1749 1737 1796
940 4 1795 1737 1796
941 5 1736 1748 1767
942 5 1736 1748 1132
943 6 1767 1748 1132
944 5 1737 1749 1133
945 5 1737 1749 1876
946 6 1133 1749 1876
947 8 1701 1778 1702
948 8 1701 1778 1703
949 8 1701 1778 1704
950 8 1702 1778 1703
951 8 1702 1778 1704
952 8 1703 1778 1704
953 9 1704 1794 1736
954 9 1704 1795 1737
955 9 1701 1796 1737
956 9 1704 1800 1739
957 1 1778 1703 1793
958 1 1778 1703 1797
959 1 1778 1703 1801
960 2 1793 1703 1797
961 2 1793 1703 1801
962 2 1797 1703 1801
963 3 1752 1740 1801
964 3 1752 1740 1802
965 4 1801 1740 1802
966 5 1740 1752 1775
967 5 1740 1752 1882
968 6 1775 1752 1882
969 7 1710 1758 1849
970 7 1710 1758 1775
971 6 1849 1758 1775
972 7 1719 1767 1748
973 7 1719 1767 1755
974 6 1748 1767 1755
975 7 1727 1775 1752
976 7 1727 1775 1758
977 6 1752 1775 1758
978 9 1703 1793 1736
979 9 1703 1797 1738
980 9 1703 1801 1740
981 9 1701 1802 1740
982 7 1716 1764 1852
983 7 1716 1764 1769
984 6 1852 1764 1769
985 7 1721 1769 477
986 7 1721 1769 1764
987 6 477 1769 1764
988 7 1720 1768 476
989 7 1720 1768 1756
990 6 476 1768 1756
991 7 453 501 55
992 7 453 501 487
993 6 55 501 487
994 7 433 481 575
995 7 433 481 494
996 6 575 481 494
997 7 446 494 51
998 7 446 494 481
999 6 51 494 481
1000 7 452 500 54
1001 7 452 500 490
1002 6 54 500 490
1003 7 1069 1117 1211
1004 7 1069 1117 1130
1005 6 1211 1117 1130
1006 7 1082 1130 687
1007 7 1082 1130 1117
1008 6 687 1130 1117
1009 7 1089 1137 691
1010 7 1089 1137 1123
1011 6 691 1137 1123
1012 7 1088 1136 690
1013 7 1088 1136 1126
1014 6 690 1136 1126
1015 7 1725 1773 1327
1016 7 1725 1773 1759
1017 6 1327 1773 1759
1018 7 1705 1753 1847
1019 7 1705 1753 1766
1020 6 1847 1753 1766
1021 7 1718 1766 1323
1022 7 1718 1766 1753
1023 6 1323 1766 1753
1024 7 1724 1772 1326
1025 7 1724 1772 1762
1026 6 1326 1772 1762
1027 7 10 58 469
1028 7 10 58 69
1029 6 469 58 69
1030 7 17 65 473
1031 7 17 65 75
1032 6 473 65 75
1033 7 21 69 157
1034 7 21 69 58
1035 6 157 69 58
1036 7 16 64 472
1037 7 16 64 78
1038 6 472 64 78
1039 7 653 701 1109
1040 7 653 701 711
1041 6 1109 701 711
1042 7 646 694 1105
1043 7 646 694 705
1044 6 1105 694 705
1045 7 652 700 1108
1046 7 652 700 714
1047 6 1108 700 714
1048 7 657 705 793
1049 7 657 705 694
1050 6 793 705 694
1051 7 1282 1330 1741
1052 7 1282 1330 1341
1053 6 1741 1330 1341
1054 7 1289 1337 1745
1055 7 1289 1337 1347
1056 6 1745 1337 1347
1057 7 1293 1341 1429
1058 7 1293 1341 1330
1059 6 1429 1341 1330
1060 7 1288 1336 1744
1061 7 1288 1336 1350
1062 6 1744 1336 1350
1063 7 11 59 1318
1064 7 11 59 71
1065 6 1318 59 71
1066 7 19 67 1322
1067 7 19 67 74
1068 6 1322 67 74
1069 7 26 74 159
1070 7 26 74 67
1071 6 159 74 67
1072 3 46 34 85
1073 3 46 34 86
1074 4 85 34 86
1075 3 47 35 87
1076 3 47 35 88
1077 4 87 35 88
1078 5 34 46 695
1079 5 34 46 60
1080 6 695 46 60
1081 5 35 47 61
1082 5 35 47 168
1083 6 61 47 168
1084 7 12 60 46
1085 7 12 60 72
1086 6 46 60 72
1087 7 13 61 47
1088 7 13 61 80
1089 6 47 61 80
1090 7 32 80 162
1091 7 32 80 61
1092 6 162 80 61
1093 9 3 85 34
1094 9 4 86 34
1095 9 4 87 35
1096 7 647 695 46
1097 7 647 695 707
1098 6 46 695 707
1099 3 50 38 93
1100 3 50 38 94
1101 4 93 38 94
1102 5 38 50 703
1103 5 38 50 174
1104 6 703 50 174
1105 9 3 93 38
1106 7 655 703 50
1107 7 655 703 710
1108 6 50 703 710
1109 7 662 710 795
1110 7 662 710 703
1111 6 795 710 703
1112 5 671 683 697
1113 5 671 683 804
1114 6 697 683 804
1115 7 649 697 683
1116 7 649 697 716
1117 6 683 697 716
1118 7 668 716 798
1119 7 668 716 697
1120 6 798 716 697
1121 9 640 723 671
1122 3 682 670 721
1123 3 682 670 722
1124 4 721 670 722
1125 3 683 671 723
1126 3 683 671 724
1127 4 723 671 724
1128 3 686 674 729
1129 3 686 674 730
1130 4 729 674 730
1131 5 670 682 1331
1132 5 670 682 696
1133 6 1331 682 696
1134 5 674 686 1339
1135 5 674 686 810
1136 6 1339 686 810
1137 7 648 696 682
1138 7 648 696 708
1139 6 682 696 708
1140 9 639 721 670
1141 9 640 722 670
1142 9 639 729 674
1143 7 1283 1331 682
1144 7 1283 1331 1343
1145 6 682 1331 1343
1146 7 1291 1339 686
1147 7 1291 1339 1346
1148 6 686 1339 1346
1149 7 1298 1346 1431
1150 7 1298 1346 1339
1151 6 1431 1346 1339
1152 3 1318 1306 1357
1153 3 1318 1306 1358
1154 4 1357 1306 1358
1155 3 1319 1307 1359
1156 3 1319 1307 1360
1157 4 1359 1307 1360
1158 5 1306 1318 59
1159 5 1306 1318 1332
1160 6 59 1318 1332
1161 5 1307 1319 1333
1162 5 1307 1319 1440
1163 6 1333 1319 1440
1164 7 1284 1332 1318
1165 7 1284 1332 1344
1166 6 1318 1332 1344
1167 7 1285 1333 1319
1168 7 1285 1333 1352
1169 6 1319 1333 1352
1170 7 1304 1352 1434
1171 7 1304 1352 1333
1172 6 1434 1352 1333
1173 9 1276 1358 1306
1174 9 1276 1359 1307
1175 3 1322 1310 1365
1176 3 1322 1310 1366
1177 4 1365 1310 1366
1178 5 1310 1322 67
1179 5 1310 1322 1446
1180 6 67 1322 1446
1181 9 1275 1357 1306
1182 9 1275 1365 1310
1183 7 15 63 1320
1184 7 15 63 77
1185 6 1320 63 77
1186 1 81 1 83
1187 1 81 1 88
1188 1 81 1 94
1189 2 83 1 88
1190 2 83 1 94
1191 2 88 1 94
1192 1 81 2 84
1193 1 81 2 90
1194 1 81 2 91
1195 2 84 2 90
1196 2 84 2 91
1197 2 90 2 91
1198 1 81 4 86
1199 1 81 4 87
1200 1 81 4 92
1201 2 86 4 87
1202 2 86 4 92
1203 2 87 4 92
1204 3 45 33 83
1205 3 45 33 84
1206 4 83 33 84
1207 3 49 37 91
1208 3 49 37 92
1209 4 91 37 92
1210 5 33 45 163
1211 5 33 45 270
1212 6 163 45 270
1213 5 37 49 277
1214 5 37 49 66
1215 6 277 49 66
1216 7 18 66 49
1217 7 18 66 76
1218 6 49 66 76
1219 8 1 81 2
1220 8 1 81 3
1221 8 1 81 4
1222 8 2 81 3
1223 8 2 81 4
1224 8 3 81 4
1225 9 1 83 33
1226 9 2 84 33
1227 9 1 88 35
1228 9 2 91 37
1229 9 4 92 37
1230 7 222 270 45
1231 7 222 270 281
1232 6 45 270 281
1233 7 229 277 49
1234 7 229 277 287
1235 6 49 277 287
1236 1 81 3 85
1237 1 81 3 89
1238 1 81 3 93
1239 2 85 3 89
1240 2 85 3 93
1241 2 89 3 93
1242 3 48 36 89
1243 3 48 36 90
1244 4 89 36 90
1245 5 36 48 699
1246 5 36 48 276
1247 6 699 48 276
1248 9 3 89 36
1249 9 2 90 36
1250 9 1 94 38
1251 7 228 276 48
1252 7 228 276 290
1253 6 48 276 290
1254 7 651 699 48
1255 7 651 699 713
1256 6 48 699 713
1257 5 673 685 913
1258 5 673 685 702
1259 6 913 685 702
1260 7 654 702 685
1261 7 654 702 712
1262 6 685 702 712
1263 9 640 728 673
1264 7 865 913 685
1265 7 865 913 923
1266 6 685 913 923
1267 1 717 637 719
1268 1 717 637 724
1269 1 717 637 730
1270 2 719 637 724
1271 2 719 637 730
1272 2 724 637 730
1273 1 717 638 720
1274 1 717 638 726
1275 1 717 638 727
1276 2 720 638 726
1277 2 720 638 727
1278 2 726 638 727
1279 1 717 639 721
1280 1 717 639 725
1281 1 717 639 729
1282 2 721 639 725
1283 2 721 639 729
1284 2 725 639 729
1285 1 717 640 722
1286 1 717 640 723
1287 1 717 640 728
1288 2 722 640 723
1289 2 722 640 728
1290 2 723 640 728
1291 3 681 669 719
1292 3 681 669 720
1293 4 719 669 720
1294 3 684 672 725
1295 3 684 672 726
1296 4 725 672 726
1297 3 685 673 727
1298 3 685 673 728
1299 4 727 673 728
1300 5 669 681 799
1301 5 669 681 906
1302 6 799 681 906
1303 5 672 684 1335
1304 5 672 684 912
1305 6 1335 684 912
1306 8 637 717 638
1307 8 637 717 639
1308 8 637 717 640
1309 8 638 717 639
1310 8 638 717 640
1311 8 639 717 640
1312 9 637 719 669
1313 9 638 720 669
1314 9 637 724 671
1315 9 639 725 672
1316 9 638 726 672
1317 9 638 727 673
1318 9 637 730 674
1319 7 858 906 681
1320 7 858 906 917
1321 6 681 906 917
1322 7 864 912 684
1323 7 864 912 926
1324 6 684 912 926
1325 7 1287 1335 684
1326 7 1287 1335 1349
1327 6 684 1335 1349
1328 1 1353 1273 1355
1329 1 1353 1273 1360
1330 1 1353 1273 1366
1331 2 1355 1273 1360
1332 2 1355 1273 1366
1333 2 1360 1273 1366
1334 1 1353 1274 1356
1335 1 1353 1274 1362
1336 1 1353 1274 1363
1337 2 1356 1274 1362
1338 2 1356 1274 1363
1339 2 1362 1274 1363
1340 1 1353 1276 1358
1341 1 1353 1276 1359
1342 1 1353 1276 1364
1343 2 1358 1276 1359
1344 2 1358 1276 1364
1345 2 1359 1276 1364
1346 3 1317 1305 1355
1347 3 1317 1305 1356
1348 4 1355 1305 1356
1349 3 1321 1309 1363
1350 3 1321 1309 1364
1351 4 1363 1309 1364
1352 5 1305 1317 1435
1353 5 1305 1317 1542
1354 6 1435 1317 1542
1355 5 1309 1321 1549
1356 5 1309 1321 1338
1357 6 1549 1321 1338
1358 7 1290 1338 1321
1359 7 1290 1338 1348
1360 6 1321 1338 1348
1361 8 1273 1353 1274
1362 8 1273 1353 1275
1363 8 1273 1353 1276
1364 8 1274 1353 1275
1365 8 1274 1353 1276
1366 8 1275 1353 1276
1367 9 1273 1355 1305
1368 9 1274 1356 1305
1369 9 1273 1360 1307
1370 9 1274 1363 1309
1371 9 1276 1364 1309
1372 7 1494 1542 1317
1373 7 1494 1542 1553
1374 6 1317 1542 1553
1375 7 1501 1549 1321
1376 7 1501 1549 1559
1377 6 1321 1549 1559
1378 1 1353 1275 1357
1379 1 1353 1275 1361
1380 1 1353 1275 1365
1381 2 1357 1275 1361
1382 2 1357 1275 1365
1383 2 1361 1275 1365
1384 3 1320 1308 1361
1385 3 1320 1308 1362
1386 4 1361 1308 1362
1387 5 1308 1320 63
1388 5 1308 1320 1548
1389 6 63 1320 1548
1390 9 1275 1361 1308
1391 9 1274 1362 1308
1392 9 1273 1366 1310
1393 7 1500 1548 1320
1394 7 1500 1548 1562
1395 6 1320 1548 1562
1396 7 223 271 1530
1397 7 223 271 283
1398 6 1530 271 283
1399 7 231 279 1534
1400 7 231 279 286
1401 6 1534 279 286
1402 7 233 281 369
1403 7 233 281 270
1404 6 369 281 270
1405 7 238 286 371
1406 7 238 286 279
1407 6 371 286 279
1408 7 224 272 258
1409 7 224 272 284
1410 6 258 272 284
1411 7 225 273 259
1412 7 225 273 292
1413 6 259 273 292
1414 7 244 292 374
1415 7 244 292 273
1416 6 374 292 273
1417 3 258 246 297
1418 3 258 246 298
1419 4 297 246 298
1420 5 246 258 907
1421 5 246 258 272
1422 6 907 258 272
1423 7 859 907 258
1424 7 859 907 919
1425 6 258 907 919
1426 7 867 915 262
1427 7 867 915 922
1428 6 262 915 922
1429 7 874 922 1007
1430 7 874 922 915
1431 6 1007 922 915
1432 7 861 909 895
1433 7 861 909 928
1434 6 895 909 928
1435 7 869 917 1005
1436 7 869 917 906
1437 6 1005 917 906
1438 7 880 928 1010
1439 7 880 928 909
1440 6 1010 928 909
1441 3 894 882 933
1442 3 894 882 934
1443 4 933 882 934
1444 5 882 894 1543
1445 5 882 894 908
1446 6 1543 894 908
1447 7 860 908 894
1448 7 860 908 920
1449 6 894 908 920
1450 7 1495 1543 894
1451 7 1495 1543 1555
1452 6 894 1543 1555
1453 7 1503 1551 898
1454 7 1503 1551 1558
1455 6 898 1551 1558
1456 7 1505 1553 1641
1457 7 1505 1553 1542
1458 6 1641 1553 1542
1459 7 1510 1558 1643
1460 7 1510 1558 1551
1461 6 1643 1558 1551
1462 7 1497 1545 1531
1463 7 1497 1545 1564
1464 6 1531 1545 1564
1465 7 1516 1564 1646
1466 7 1516 1564 1545
1467 6 1646 1564 1545
1468 3 1530 1518 1569
1469 3 1530 1518 1570
1470 4 1569 1518 1570
1471 5 1518 1530 271
1472 5 1518 1530 1544
1473 6 271 1530 1544
1474 7 1496 1544 1530
1475 7 1496 1544 1556
1476 6 1530 1544 1556
1477 7 227 275 1532
1478 7 227 275 289
1479 6 1532 275 289
1480 1 293 216 298
1481 1 293 216 299
1482 1 293 216 304
1483 2 298 216 299
1484 2 298 216 304
1485 2 299 216 304
1486 3 259 247 299
1487 3 259 247 300
1488 4 299 247 300
1489 3 261 249 303
1490 3 261 249 304
1491 4 303 249 304
1492 5 247 259 273
1493 5 247 259 380
1494 6 273 259 380
1495 5 249 261 489
1496 5 249 261 278
1497 6 489 261 278
1498 7 230 278 261
1499 7 230 278 288
1500 6 261 278 288
1501 9 216 298 246
1502 9 216 299 247
1503 9 213 300 247
1504 9 214 303 249
1505 9 216 304 249
1506 7 441 489 261
1507 7 441 489 499
1508 6 261 489 499
1509 1 293 213 295
1510 1 293 213 300
1511 1 293 213 306
1512 2 295 213 300
1513 2 295 213 306
1514 2 300 213 306
1515 1 293 214 296
1516 1 293 214 302
1517 1 293 214 303
1518 2 296 214 302
1519 2 296 214 303
1520 2 302 214 303
1521 1 293 215 297
1522 1 293 215 301
1523 1 293 215 305
1524 2 297 215 301
1525 2 297 215 305
1526 2 301 215 305
1527 3 257 245 295
1528 3 257 245 296
1529 4 295 245 296
1530 3 260 248 301
1531 3 260 248 302
1532 4 301 248 302
1533 3 262 250 305
1534 3 262 250 306
1535 4 305 250 306
1536 5 245 257 375
1537 5 245 257 482
1538 6 375 257 482
1539 5 248 260 911
1540 5 248 260 488
1541 6 911 260 488
1542 5 250 262 915
1543 5 250 262 386
1544 6 915 262 386
1545 8 213 293 214
1546 8 213 293 215
1547 8 213 293 216
1548 8 214 293 215
1549 8 214 293 216
1550 8 215 293 216
1551 9 213 295 245
1552 9 214 296 245
1553 9 215 297 246
1554 9 215 301 248
1555 9 214 302 248
1556 9 215 305 250
1557 9 213 306 250
1558 7 440 488 260
1559 7 440 488 502
1560 6 260 488 502
1561 7 863 911 260
1562 7 863 911 925
1563 6 260 911 925
1564 7 866 914 897
1565 7 866 914 924
1566 6 897 914 924
1567 1 929 849 931
1568 1 929 849 936
1569 1 929 849 942
1570 2 931 849 936
1571 2 931 849 942
1572 2 936 849 942
1573 1 929 850 932
1574 1 929 850 938
1575 1 929 850 939
1576 2 932 850 938
1577 2 932 850 939
1578 2 938 850 939
1579 1 929 851 933
1580 1 929 851 937
1581 1 929 851 941
1582 2 933 851 937
1583 2 933 851 941
1584 2 937 851 941
1585 1 929 852 934
1586 1 929 852 935
1587 1 929 852 940
1588 2 934 852 935
1589 2 934 852 940
1590 2 935 852 940
1591 3 893 881 931
1592 3 893 881 932
1593 4 931 881 932
1594 3 895 883 935
1595 3 895 883 936
1596 4 935 883 936
1597 3 896 884 937
1598 3 896 884 938
1599 4 937 884 938
1600 3 897 885 939
1601 3 897 885 940
1602 4 939 885 940
1603 3 898 886 941
1604 3 898 886 942
1605 4 941 886 942
1606 5 881 893 1011
1607 5 881 893 1118
1608 6 1011 893 1118
1609 5 883 895 909
1610 5 883 895 1016
1611 6 909 895 1016
1612 5 885 897 1125
1613 5 885 897 914
1614 6 1125 897 914
1615 8 849 929 850
1616 8 849 929 851
1617 8 849 929 852
1618 8 850 929 851
1619 8 850 929 852
1620 8 851 929 852
1621 9 849 931 881
1622 9 850 932 881
1623 9 851 933 882
1624 9 852 934 882
1625 9 852 935 883
1626 9 849 936 883
1627 9 850 938 884
1628 9 850 939 885
1629 9 852 940 885
1630 9 849 942 886
1631 7 1077 1125 897
1632 7 1077 1125 1135
1633 6 897 1125 1135
1634 5 884 896 1547
1635 5 884 896 1124
1636 6 1547 896 1124
1637 5 886 898 1551
1638 5 886 898 1022
1639 6 1551 898 1022
1640 9 851 937 884
1641 9 851 941 886
1642 7 1076 1124 896
1643 7 1076 1124 1138
1644 6 896 1124 1138
1645 7 1499 1547 896
1646 7 1499 1547 1561
1647 6 896 1547 1561
1648 1 1565 1488 1570
1649 1 1565 1488 1571
1650 1 1565 1488 1576
1651 2 1570 1488 1571
1652 2 1570 1488 1576
1653 2 1571 1488 1576
1654 3 1531 1519 1571
1655 3 1531 1519 1572
1656 4 1571 1519 1572
1657 3 1533 1521 1575
1658 3 1533 1521 1576
1659 4 1575 1521 1576
1660 5 1519 1531 1545
1661 5 1519 1531 1652
1662 6 1545 1531 1652
1663 5 1521 1533 1761
1664 5 1521 1533 1550
1665 6 1761 1533 1550
1666 7 1502 1550 1533
1667 7 1502 1550 1560
1668 6 1533 1550 1560
1669 9 1488 1571 1519
1670 9 1485 1572 1519
1671 9 1486 1575 1521
1672 9 1488 1576 1521
1673 7 1713 1761 1533
1674 7 1713 1761 1771
1675 6 1533 1761 1771
1676 1 1565 1485 1567
1677 1 1565 1485 1572
1678 1 1565 1485 1578
1679 2 1567 1485 1572
1680 2 1567 1485 1578
1681 2 1572 1485 1578
1682 1 1565 1486 1568
1683 1 1565 1486 1574
1684 1 1565 1486 1575
1685 2 1568 1486 1574
1686 2 1568 1486 1575
1687 2 1574 1486 1575
1688 1 1565 1487 1569
1689 1 1565 1487 1573
1690 1 1565 1487 1577
1691 2 1569 1487 1573
1692 2 1569 1487 1577
1693 2 1573 1487 1577
1694 3 1529 1517 1567
1695 3 1529 1517 1568
1696 4 1567 1517 1568
1697 3 1532 1520 1573
1698 3 1532 1520 1574
1699 4 1573 1520 1574
1700 3 1534 1522 1577
1701 3 1534 1522 1578
1702 4 1577 1522 1578
1703 5 1517 1529 1647
1704 5 1517 1529 1754
1705 6 1647 1529 1754
1706 5 1520 1532 275
1707 5 1520 1532 1760
1708 6 275 1532 1760
1709 5 1522 1534 279
1710 5 1522 1534 1658
1711 6 279 1534 1658
1712 8 1485 1565 1486
1713 8 1485 1565 1487
1714 8 1485 1565 1488
1715 8 1486 1565 1487
1716 8 1486 1565 1488
1717 8 1487 1565 1488
1718 9 1485 1567 1517
1719 9 1486 1568 1517
1720 9 1487 1569 1518
1721 9 1488 1570 1518
1722 9 1487 1573 1520
1723 9 1486 1574 1520
1724 9 1487 1577 1522
1725 9 1485 1578 1522
1726 7 1712 1760 1532
1727 7 1712 1760 1774
1728 6 1532 1760 1774
1729 7 435 483 1742
1730 7 435 483 495
1731 6 1742 483 495
1732 7 434 482 257
1733 7 434 482 493
1734 6 257 482 493
1735 7 445 493 581
1736 7 445 493 482
1737 6 581 493 482
1738 5 458 470 1119
1739 5 458 470 484
1740 6 1119 470 484
1741 7 436 484 470
1742 7 436 484 496
1743 6 470 484 496
1744 7 1071 1119 470
1745 7 1071 1119 1131
1746 6 470 1119 1131
1747 7 1070 1118 893
1748 7 1070 1118 1129
1749 6 893 1118 1129
1750 7 1081 1129 1217
1751 7 1081 1129 1118
1752 6 1217 1129 1118
1753 5 1094 1106 1755
1754 5 1094 1106 1120
1755 6 1755 1106 1120
1756 7 1072 1120 1106
1757 7 1072 1120 1132
1758 6 1106 1120 1132
1759 7 1707 1755 1106
1760 7 1707 1755 1767
1761 6 1106 1755 1767
1762 7 1706 1754 1529
1763 7 1706 1754 1765
1764 6 1529 1754 1765
1765 7 1717 1765 1853
1766 7 1717 1765 1754
1767 6 1853 1765 1754
1768 5 1730 1742 483
1769 5 1730 1742 1756
1770 6 483 1742 1756
1771 7 1708 1756 1742
1772 7 1708 1756 1768
1773 6 1742 1756 1768
1774 7 439 487 1744
1775 7 439 487 501
1776 6 1744 487 501
1777 7 443 491 1746
1778 7 443 491 498
1779 6 1746 491 498
1780 7 450 498 583
1781 7 450 498 491
1782 6 583 498 491
1783 5 459 471 485
1784 5 459 471 592
1785 6 485 471 592
1786 5 461 473 65
1787 5 461 473 490
1788 6 65 473 490
1789 7 437 485 471
1790 7 437 485 504
1791 6 471 485 504
1792 7 442 490 473
1793 7 442 490 500
1794 6 473 490 500
1795 7 456 504 586
1796 7 456 504 485
1797 6 586 504 485
1798 9 428 511 459
1799 9 428 516 461
1800 1 505 425 507
1801 1 505 425 512
1802 1 505 425 518
1803 2 507 425 512
1804 2 507 425 518
1805 2 512 425 518
1806 1 505 426 508
1807 1 505 426 514
1808 1 505 426 515
1809 2 508 426 514
1810 2 508 426 515
1811 2 514 426 515
1812 1 505 427 509
1813 1 505 427 513
1814 1 505 427 517
1815 2 509 427 513
1816 2 509 427 517
1817 2 513 427 517
1818 1 505 428 510
1819 1 505 428 511
1820 1 505 428 516
1821 2 510 428 511
1822 2 510 428 516
1823 2 511 428 516
1824 3 469 457 507
1825 3 469 457 508
1826 4 507 457 508
1827 3 470 458 509
1828 3 470 458 510
1829 4 509 458 510
1830 3 471 459 511
1831 3 471 459 512
1832 4 511 459 512
1833 3 472 460 513
1834 3 472 460 514
1835 4 513 460 514
1836 3 473 461 515
1837 3 473 461 516
1838 4 515 461 516
1839 3 474 462 517
1840 3 474 462 518
1841 4 517 462 518
1842 5 460 472 1123
1843 5 460 472 64
1844 6 1123 472 64
1845 5 462 474 1127
1846 5 462 474 598
1847 6 1127 474 598
1848 8 425 505 426
1849 8 425 505 427
1850 8 425 505 428
1851 8 426 505 427
1852 8 426 505 428
1853 8 427 505 428
1854 9 425 507 457
1855 9 426 508 457
1856 9 427 509 458
1857 9 428 510 458
1858 9 425 512 459
1859 9 427 513 460
1860 9 426 514 460
1861 9 426 515 461
1862 9 427 517 462
1863 9 425 518 462
1864 7 1075 1123 472
1865 7 1075 1123 1137
1866 6 472 1123 1137
1867 7 1079 1127 474
1868 7 1079 1127 1134
1869 6 474 1127 1134
1870 7 1086 1134 1219
1871 7 1086 1134 1127
1872 6 1219 1134 1127
1873 1 1141 1061 1143
1874 1 1141 1061 1148
1875 1 1141 1061 1154
1876 2 1143 1061 1148
1877 2 1143 1061 1154
1878 2 1148 1061 1154
1879 1 1141 1062 1144
1880 1 1141 1062 1150
1881 1 1141 1062 1151
1882 2 1144 1062 1150
1883 2 1144 1062 1151
1884 2 1150 1062 1151
1885 1 1141 1064 1146
1886 1 1141 1064 1147
1887 1 1141 1064 1152
1888 2 1146 1064 1147
1889 2 1146 1064 1152
1890 2 1147 1064 1152
1891 3 1105 1093 1143
1892 3 1105 1093 1144
1893 4 1143 1093 1144
1894 3 1106 1094 1145
1895 3 1106 1094 1146
1896 4 1145 1094 1146
1897 3 1107 1095 1147
1898 3 1107 1095 1148
1899 4 1147 1095 1148
1900 3 1109 1097 1151
1901 3 1109 1097 1152
1902 4 1151 1097 1152
1903 5 1095 1107 1121
1904 5 1095 1107 1228
1905 6 1121 1107 1228
1906 5 1097 1109 701
1907 5 1097 1109 1126
1908 6 701 1109 1126
1909 7 1073 1121 1107
1910 7 1073 1121 1140
1911 6 1107 1121 1140
1912 7 1078 1126 1109
1913 7 1078 1126 1136
1914 6 1109 1126 1136
1915 7 1092 1140 1222
1916 7 1092 1140 1121
1917 6 1222 1140 1121
1918 8 1061 1141 1062
1919 8 1061 1141 1063
1920 8 1061 1141 1064
1921 8 1062 1141 1063
1922 8 1062 1141 1064
1923 8 1063 1141 1064
1924 9 1061 1143 1093
1925 9 1062 1144 1093
1926 9 1064 1146 1094
1927 9 1064 1147 1095
1928 9 1061 1148 1095
1929 9 1062 1151 1097
1930 9 1064 1152 1097
1931 1 1141 1063 1145
1932 1 1141 1063 1149
1933 1 1141 1063 1153
1934 2 1145 1063 1149
1935 2 1145 1063 1153
1936 2 1149 1063 1153
1937 3 1108 1096 1149
1938 3 1108 1096 1150
1939 4 1149 1096 1150
1940 3 1110 1098 1153
1941 3 1110 1098 1154
1942 4 1153 1098 1154
1943 5 1096 1108 1759
1944 5 1096 1108 700
1945 6 1759 1108 700
1946 5 1098 1110 1763
1947 5 1098 1110 1234
1948 6 1763 1110 1234
1949 9 1063 1145 1094
1950 9 1063 1149 1096
1951 9 1062 1150 1096
1952 9 1063 1153 1098
1953 9 1061 1154 1098
1954 7 1711 1759 1108
1955 7 1711 1759 1773
1956 6 1108 1759 1773
1957 7 1715 1763 1110
1958 7 1715 1763 1770
1959 6 1110 1763 1770
1960 7 1722 1770 1855
1961 7 1722 1770 1763
1962 6 1855 1770 1763
1963 5 1731 1743 1757
1964 5 1731 1743 1864
1965 6 1757 1743 1864
1966 5 1733 1745 1337
1967 5 1733 1745 1762
1968 6 1337 1745 1762
1969 7 1709 1757 1743
1970 7 1709 1757 1776
1971 6 1743 1757 1776
1972 7 1714 1762 1745
1973 7 1714 1762 1772
1974 6 1745 1762 1772
1975 7 1728 1776 1858
1976 7 1728 1776 1757
1977 6 1858 1776 1757
1978 1 1777 1697 1779
1979 1 1777 1697 1784
1980 1 1777 1697 1790
1981 2 1779 1697 1784
1982 2 1779 1697 1790
1983 2 1784 1697 1790
1984 1 1777 1698 1780
1985 1 1777 1698 1786
1986 1 1777 1698 1787
1987 2 1780 1698 1786
1988 2 1780 1698 1787
1989 2 1786 1698 1787
1990 1 1777 1699 1781
1991 1 1777 1699 1785
1992 1 1777 1699 1789
1993 2 1781 1699 1785
1994 2 1781 1699 1789
1995 2 1785 1699 1789
1996 1 1777 1700 1782
1997 1 1777 1700 1783
1998 1 1777 1700 1788
1999 2 1782 1700 1783
2000 2 1782 1700 1788
2001 2 1783 1700 1788
2002 3 1741 1729 1779
2003 3 1741 1729 1780
2004 4 1779 1729 1780
2005 3 1742 1730 1781
2006 3 1742 1730 1782
2007 4 1781 1730 1782
2008 3 1743 1731 1783
2009 3 1743 1731 1784
2010 4 1783 1731 1784
2011 3 1744 1732 1785
2012 3 1744 1732 1786
2013 4 1785 1732 1786
2014 3 1745 1733 1787
2015 3 1745 1733 1788
2016 4 1787 1733 1788
2017 3 1746 1734 1789
2018 3 1746 1734 1790
2019 4 1789 1734 1790
2020 5 1732 1744 487
2021 5 1732 1744 1336
2022 6 487 1744 1336
2023 5 1734 1746 491
2024 5 1734 1746 1870
2025 6 491 1746 1870
2026 8 1697 1777 1698
2027 8 1697 1777 1699
2028 8 1697 1777 1700
2029 8 1698 1777 1699
2030 8 1698 1777 1700
2031 8 1699 1777 1700
2032 9 1697 1779 1729
2033 9 1698 1780 1729
2034 9 1699 1781 1730
2035 9 1700 1782 1730
2036 9 1700 1783 1731
2037 9 1697 1784 1731
2038 9 1699 1785 1732
2039 9 1698 1786 1732
2040 9 1698 1787 1733
2041 9 1700 1788 1733
2042 9 1699 1789 1734
2043 9 1697 1790 1734
2044 5 457 469 587
2045 5 457 469 58
2046 6 587 469 58
2047 5 1093 1105 1223
2048 5 1093 1105 694
2049 6 1223 1105 694
2050 5 1729 1741 1859
2051 5 1729 1741 1330
2052 6 1859 1741 1330
2053 5 145 157 69
2054 5 145 157 600
2055 6 69 157 600
2056 5 781 793 705
2057 5 781 793 1236
2058 6 705 793 1236
2059 5 1417 1429 1341
2060 5 1417 1429 1872
2061 6 1341 1429 1872
2062 1 188 111 201
2063 1 188 111 206
2064 1 188 111 212
2065 2 201 111 206
2066 2 201 111 212
2067 2 206 111 212
2068 1 188 112 202
2069 1 188 112 208
2070 1 188 112 209
2071 2 202 112 208
2072 2 202 112 209
2073 2 208 112 209
2074 1 188 113 203
2075 1 188 113 207
2076 1 188 113 211
2077 2 203 113 207
2078 2 203 113 211
2079 2 207 113 211
2080 1 188 114 204
2081 1 188 114 205
2082 1 188 114 210
2083 2 204 114 205
2084 2 204 114 210
2085 2 205 114 210
2086 3 157 145 201
2087 3 157 145 202
2088 4 201 145 202
2089 3 158 146 203
2090 3 158 146 204
2091 4 203 146 204
2092 3 159 147 205
2093 3 159 147 206
2094 4 205 147 206
2095 3 160 148 207
2096 3 160 148 208
2097 4 207 148 208
2098 3 161 149 209
2099 3 161 149 210
2100 4 209 149 210
2101 3 162 150 211
2102 3 162 150 212
2103 4 211 150 212
2104 5 147 159 1451
2105 5 147 159 74
2106 6 1451 159 74
2107 5 149 161 607
2108 5 149 161 1456
2109 6 607 161 1456
2110 8 111 188 112
2111 8 111 188 113
2112 8 111 188 114
2113 8 112 188 113
2114 8 112 188 114
2115 8 113 188 114
2116 9 111 201 145
2117 9 112 202 145
2118 9 113 203 146
2119 9 114 204 146
2120 9 114 205 147
2121 9 111 206 147
2122 9 113 207 148
2123 9 112 208 148
2124 9 112 209 149
2125 9 114 210 149
2126 9 113 211 150
2127 9 111 212 150
2128 5 148 160 181
2129 5 148 160 606
2130 6 181 160 606
2131 5 150 162 185
2132 5 150 162 80
2133 6 185 162 80
2134 7 120 168 47
2135 7 120 168 185
2136 6 47 168 185
2137 7 133 181 160
2138 7 133 181 171
2139 6 160 181 171
2140 7 137 185 162
2141 7 137 185 168
2142 6 162 185 168
2143 7 126 174 50
2144 7 126 174 179
2145 6 50 174 179
2146 7 131 179 795
2147 7 131 179 174
2148 6 795 179 174
2149 7 136 184 797
2150 7 136 184 170
2151 6 797 184 170
2152 1 824 750 840
2153 1 824 750 841
2154 1 824 750 846
2155 2 840 750 841
2156 2 840 750 846
2157 2 841 750 846
2158 3 795 783 841
2159 3 795 783 842
2160 4 841 783 842
2161 3 797 785 845
2162 3 797 785 846
2163 4 845 785 846
2164 5 783 795 179
2165 5 783 795 710
2166 6 179 795 710
2167 5 785 797 1243
2168 5 785 797 184
2169 6 1243 797 184
2170 9 750 840 782
2171 9 750 841 783
2172 9 747 842 783
2173 9 748 845 785
2174 9 750 846 785
2175 1 824 747 837
2176 1 824 747 842
2177 1 824 747 848
2178 2 837 747 842
2179 2 837 747 848
2180 2 842 747 848
2181 1 824 748 838
2182 1 824 748 844
2183 1 824 748 845
2184 2 838 748 844
2185 2 838 748 845
2186 2 844 748 845
2187 1 824 749 839
2188 1 824 749 843
2189 1 824 749 847
2190 2 839 749 843
2191 2 839 749 847
2192 2 843 749 847
2193 3 793 781 837
2194 3 793 781 838
2195 4 837 781 838
2196 3 794 782 839
2197 3 794 782 840
2198 4 839 782 840
2199 3 796 784 843
2200 3 796 784 844
2201 4 843 784 844
2202 3 798 786 847
2203 3 798 786 848
2204 4 847 786 848
2205 5 784 796 817
2206 5 784 796 1242
2207 6 817 796 1242
2208 5 786 798 821
2209 5 786 798 716
2210 6 821 798 716
2211 7 756 804 683
2212 7 756 804 821
2213 6 683 804 821
2214 7 769 817 796
2215 7 769 817 807
2216 6 796 817 807
2217 7 773 821 798
2218 7 773 821 804
2219 6 798 821 804
2220 8 747 824 748
2221 8 747 824 749
2222 8 747 824 750
2223 8 748 824 749
2224 8 748 824 750
2225 8 749 824 750
2226 9 747 837 781
2227 9 748 838 781
2228 9 749 839 782
2229 9 749 843 784
2230 9 748 844 784
2231 9 749 847 786
2232 9 747 848 786
2233 7 762 810 686
2234 7 762 810 815
2235 6 686 810 815
2236 7 767 815 1431
2237 7 767 815 810
2238 6 1431 815 810
2239 7 772 820 1433
2240 7 772 820 806
2241 6 1433 820 806
2242 1 1460 1383 1473
2243 1 1460 1383 1478
2244 1 1460 1383 1484
2245 2 1473 1383 1478
2246 2 1473 1383 1484
2247 2 1478 1383 1484
2248 1 1460 1384 1474
2249 1 1460 1384 1480
2250 1 1460 1384 1481
2251 2 1474 1384 1480
2252 2 1474 1384 1481
2253 2 1480 1384 1481
2254 1 1460 1385 1475
2255 1 1460 1385 1479
2256 1 1460 1385 1483
2257 2 1475 1385 1479
2258 2 1475 1385 1483
2259 2 1479 1385 1483
2260 1 1460 1386 1476
2261 1 1460 1386 1477
2262 1 1460 1386 1482
2263 2 1476 1386 1477
2264 2 1476 1386 1482
2265 2 1477 1386 1482
2266 3 1429 1417 1473
2267 3 1429 1417 1474
2268 4 1473 1417 1474
2269 3 1430 1418 1475
2270 3 1430 1418 1476
2271 4 1475 1418 1476
2272 3 1431 1419 1477
2273 3 1431 1419 1478
2274 4 1477 1419 1478
2275 3 1432 1420 1479
2276 3 1432 1420 1480
2277 4 1479 1420 1480
2278 3 1433 1421 1481
2279 3 1433 1421 1482
2280 4 1481 1421 1482
2281 3 1434 1422 1483
2282 3 1434 1422 1484
2283 4 1483 1422 1484
2284 5 1419 1431 815
2285 5 1419 1431 1346
2286 6 815 1431 1346
2287 5 1421 1433 1879
2288 5 1421 1433 820
2289 6 1879 1433 820
2290 8 1383 1460 1384
2291 8 1383 1460 1385
2292 8 1383 1460 1386
2293 8 1384 1460 1385
2294 8 1384 1460 1386
2295 8 1385 1460 1386
2296 9 1383 1473 1417
2297 9 1384 1474 1417
2298 9 1385 1475 1418
2299 9 1386 1476 1418
2300 9 1386 1477 1419
2301 9 1383 1478 1419
2302 9 1384 1480 1420
2303 9 1384 1481 1421
2304 9 1386 1482 1421
2305 9 1383 1484 1422
2306 5 1420 1432 1453
2307 5 1420 1432 1878
2308 6 1453 1432 1878
2309 5 1422 1434 1457
2310 5 1422 1434 1352
2311 6 1457 1434 1352
2312 7 1392 1440 1319
2313 7 1392 1440 1457
2314 6 1319 1440 1457
2315 7 1405 1453 1432
2316 7 1405 1453 1443
2317 6 1432 1453 1443
2318 7 1409 1457 1434
2319 7 1409 1457 1440
2320 6 1434 1457 1440
2321 9 1385 1479 1420
2322 9 1385 1483 1422
2323 7 1398 1446 1322
2324 7 1398 1446 1451
2325 6 1322 1446 1451
2326 7 1403 1451 159
2327 7 1403 1451 1446
2328 6 159 1451 1446
2329 7 1408 1456 161
2330 7 1408 1456 1442
2331 6 161 1456 1442
2332 5 146 158 177
2333 5 146 158 1450
2334 6 177 158 1450
2335 7 129 177 158
2336 7 129 177 165
2337 6 158 177 165
2338 7 115 163 45
2339 7 115 163 176
2340 6 45 163 176
2341 7 128 176 369
2342 7 128 176 163
2343 6 369 176 163
2344 7 130 178 794
2345 7 130 178 166
2346 6 794 178 166
2347 5 782 794 813
2348 5 782 794 178
2349 6 813 794 178
2350 7 765 813 794
2351 7 765 813 801
2352 6 794 813 801
2353 7 751 799 681
2354 7 751 799 812
2355 6 681 799 812
2356 7 764 812 1005
2357 7 764 812 799
2358 6 1005 812 799
2359 7 766 814 1430
2360 7 766 814 802
2361 6 1430 814 802
2362 5 1418 1430 1449
2363 5 1418 1430 814
2364 6 1449 1430 814
2365 7 1401 1449 1430
2366 7 1401 1449 1437
2367 6 1430 1449 1437
2368 7 1387 1435 1317
2369 7 1387 1435 1448
2370 6 1317 1435 1448
2371 7 1400 1448 1641
2372 7 1400 1448 1435
2373 6 1641 1448 1435
2374 7 1402 1450 158
2375 7 1402 1450 1438
2376 6 158 1450 1438
2377 7 135 183 373
2378 7 135 183 169
2379 6 373 183 169
2380 1 400 323 413
2381 1 400 323 418
2382 1 400 323 424
2383 2 413 323 418
2384 2 413 323 424
2385 2 418 323 424
2386 1 400 324 414
2387 1 400 324 420
2388 1 400 324 421
2389 2 414 324 420
2390 2 414 324 421
2391 2 420 324 421
2392 1 400 326 416
2393 1 400 326 417
2394 1 400 326 422
2395 2 416 326 417
2396 2 416 326 422
2397 2 417 326 422
2398 3 369 357 413
2399 3 369 357 414
2400 4 413 357 414
2401 3 371 359 417
2402 3 371 359 418
2403 4 417 359 418
2404 3 373 361 421
2405 3 373 361 422
2406 4 421 361 422
2407 5 357 369 281
2408 5 357 369 176
2409 6 281 369 176
2410 5 359 371 1663
2411 5 359 371 286
2412 6 1663 371 286
2413 5 361 373 183
2414 5 361 373 1668
2415 6 183 373 1668
2416 8 323 400 324
2417 8 323 400 325
2418 8 323 400 326
2419 8 324 400 325
2420 8 324 400 326
2421 8 325 400 326
2422 9 323 413 357
2423 9 324 414 357
2424 9 325 415 358
2425 9 326 416 358
2426 9 326 417 359
2427 9 323 418 359
2428 9 324 421 361
2429 9 326 422 361
2430 7 134 182 372
2431 7 134 182 172
2432 6 372 182 172
2433 1 400 325 415
2434 1 400 325 419
2435 1 400 325 423
2436 2 415 325 419
2437 2 415 325 423
2438 2 419 325 423
2439 3 372 360 419
2440 3 372 360 420
2441 4 419 360 420
2442 3 374 362 423
2443 3 374 362 424
2444 4 423 362 424
2445 5 360 372 393
2446 5 360 372 182
2447 6 393 372 182
2448 5 362 374 397
2449 5 362 374 292
2450 6 397 374 292
2451 7 345 393 372
2452 7 345 393 383
2453 6 372 393 383
2454 9 325 419 360
2455 9 324 420 360
2456 9 325 423 362
2457 9 323 424 362
2458 7 348 396 1009
2459 7 348 396 382
2460 6 1009 396 382
2461 7 771 819 1009
2462 7 771 819 805
2463 6 1009 819 805
2464 5 995 1007 391
2465 5 995 1007 922
2466 6 391 1007 922
2467 5 997 1009 819
2468 5 997 1009 396
2469 6 819 1009 396
2470 9 962 1053 995
2471 9 962 1058 997
2472 7 770 818 1008
2473 7 770 818 808
2474 6 1008 818 808
2475 1 1036 959 1049
2476 1 1036 959 1054
2477 1 1036 959 1060
2478 2 1049 959 1054
2479 2 1049 959 1060
2480 2 1054 959 1060
2481 1 1036 960 1050
2482 1 1036 960 1056
2483 1 1036 960 1057
2484 2 1050 960 1056
2485 2 1050 960 1057
2486 2 1056 960 1057
2487 1 1036 961 1051
2488 1 1036 961 1055
2489 1 1036 961 1059
2490 2 1051 961 1055
2491 2 1051 961 1059
2492 2 1055 961 1059
2493 1 1036 962 1052
2494 1 1036 962 1053
2495 1 1036 962 1058
2496 2 1052 962 1053
2497 2 1052 962 1058
2498 2 1053 962 1058
2499 3 1005 993 1049
2500 3 1005 993 1050
2501 4 1049 993 1050
2502 3 1007 995 1053
2503 3 1007 995 1054
2504 4 1053 995 1054
2505 3 1008 996 1055
2506 3 1008 996 1056
2507 4 1055 996 1056
2508 3 1009 997 1057
2509 3 1009 997 1058
2510 4 1057 997 1058
2511 3 1010 998 1059
2512 3 1010 998 1060
2513 4 1059 998 1060
2514 5 993 1005 917
2515 5 993 1005 812
2516 6 917 1005 812
2517 5 996 1008 1029
2518 5 996 1008 818
2519 6 1029 1008 818
2520 5 998 1010 1033
2521 5 998 1010 928
2522 6 1033 1010 928
2523 8 959 1036 960
2524 8 959 1036 961
2525 8 959 1036 962
2526 8 960 1036 961
2527 8 960 1036 962
2528 8 961 1036 962
2529 9 959 1049 993
2530 9 960 1050 993
2531 9 961 1051 994
2532 9 962 1052 994
2533 9 959 1054 995
2534 9 961 1055 996
2535 9 960 1056 996
2536 9 960 1057 997
2537 9 961 1059 998
2538 9 959 1060 998
2539 7 981 1029 1008
2540 7 981 1029 1019
2541 6 1008 1029 1019
2542 7 984 1032 1645
2543 7 984 1032 1018
2544 6 1645 1032 1018
2545 7 1407 1455 1645
2546 7 1407 1455 1441
2547 6 1645 1455 1441
2548 1 1672 1595 1685
2549 1 1672 1595 1690
2550 1 1672 1595 1696
2551 2 1685 1595 1690
2552 2 1685 1595 1696
2553 2 1690 1595 1696
2554 1 1672 1596 1686
2555 1 1672 1596 1692
2556 1 1672 1596 1693
2557 2 1686 1596 1692
2558 2 1686 1596 1693
2559 2 1692 1596 1693
2560 1 1672 1598 1688
2561 1 1672 1598 1689
2562 1 1672 1598 1694
2563 2 1688 1598 1689
2564 2 1688 1598 1694
2565 2 1689 1598 1694
2566 3 1641 1629 1685
2567 3 1641 1629 1686
2568 4 1685 1629 1686
2569 3 1643 1631 1689
2570 3 1643 1631 1690
2571 4 1689 1631 1690
2572 3 1645 1633 1693
2573 3 1645 1633 1694
2574 4 1693 1633 1694
2575 5 1629 1641 1553
2576 5 1629 1641 1448
2577 6 1553 1641 1448
2578 5 1631 1643 1027
2579 5 1631 1643 1558
2580 6 1027 1643 1558
2581 5 1633 1645 1455
2582 5 1633 1645 1032
2583 6 1455 1645 1032
2584 8 1595 1672 1596
2585 8 1595 1672 1597
2586 8 1595 1672 1598
2587 8 1596 1672 1597
2588 8 1596 1672 1598
2589 8 1597 1672 1598
2590 9 1595 1685 1629
2591 9 1596 1686 1629
2592 9 1598 1688 1630
2593 9 1598 1689 1631
2594 9 1595 1690 1631
2595 9 1596 1693 1633
2596 9 1598 1694 1633
2597 7 1406 1454 1644
2598 7 1406 1454 1444
2599 6 1644 1454 1444
2600 1 1672 1597 1687
2601 1 1672 1597 1691
2602 1 1672 1597 1695
2603 2 1687 1597 1691
2604 2 1687 1597 1695
2605 2 1691 1597 1695
2606 3 1644 1632 1691
2607 3 1644 1632 1692
2608 4 1691 1632 1692
2609 3 1646 1634 1695
2610 3 1646 1634 1696
2611 4 1695 1634 1696
2612 5 1632 1644 1665
2613 5 1632 1644 1454
2614 6 1665 1644 1454
2615 5 1634 1646 1669
2616 5 1634 1646 1564
2617 6 1669 1646 1564
2618 7 1617 1665 1644
2619 7 1617 1665 1655
2620 6 1644 1665 1655
2621 9 1597 1687 1630
2622 9 1597 1691 1632
2623 9 1596 1692 1632
2624 9 1597 1695 1634
2625 9 1595 1696 1634
2626 7 1620 1668 373
2627 7 1620 1668 1654
2628 6 373 1668 1654
2629 3 370 358 415
2630 3 370 358 416
2631 4 415 358 416
2632 5 358 370 389
2633 5 358 370 1662
2634 6 389 370 1662
2635 7 341 389 370
2636 7 341 389 377
2637 6 370 389 377
2638 7 332 380 259
2639 7 332 380 397
2640 6 259 380 397
2641 7 349 397 374
2642 7 349 397 380
2643 6 374 397 380
2644 7 327 375 257
2645 7 327 375 388
2646 6 257 375 388
2647 7 338 386 262
2648 7 338 386 391
2649 6 262 386 391
2650 7 343 391 1007
2651 7 343 391 386
2652 6 1007 391 386
2653 7 342 390 1006
2654 7 342 390 378
2655 6 1006 390 378
2656 3 1006 994 1051
2657 3 1006 994 1052
2658 4 1051 994 1052
2659 5 994 1006 1025
2660 5 994 1006 390
2661 6 1025 1006 390
2662 7 977 1025 1006
2663 7 977 1025 1013
2664 6 1006 1025 1013
2665 7 963 1011 893
2666 7 963 1011 1024
2667 6 893 1011 1024
2668 7 968 1016 895
2669 7 968 1016 1033
2670 6 895 1016 1033
2671 7 985 1033 1010
2672 7 985 1033 1016
2673 6 1010 1033 1016
2674 7 974 1022 898
2675 7 974 1022 1027
2676 6 898 1022 1027
2677 7 978 1026 1642
2678 7 978 1026 1014
2679 6 1642 1026 1014
2680 7 979 1027 1643
2681 7 979 1027 1022
2682 6 1643 1027 1022
2683 3 1642 1630 1687
2684 3 1642 1630 1688
2685 4 1687 1630 1688
2686 5 1630 1642 1661
2687 5 1630 1642 1026
2688 6 1661 1642 1026
2689 7 1604 1652 1531
2690 7 1604 1652 1669
2691 6 1531 1652 1669
2692 7 1613 1661 1642
2693 7 1613 1661 1649
2694 6 1642 1661 1649
2695 7 1621 1669 1646
2696 7 1621 1669 1652
2697 6 1646 1669 1652
2698 7 1599 1647 1529
2699 7 1599 1647 1660
2700 6 1529 1647 1660
2701 7 1610 1658 1534
2702 7 1610 1658 1663
2703 6 1534 1658 1663
2704 7 1615 1663 371
2705 7 1615 1663 1658
2706 6 371 1663 1658
2707 7 1614 1662 370
2708 7 1614 1662 1650
2709 6 370 1662 1650
2710 7 347 395 585
2711 7 347 395 381
2712 6 585 395 381
2713 1 612 538 628
2714 1 612 538 629
2715 1 612 538 634
2716 2 628 538 629
2717 2 628 538 634
2718 2 629 538 634
2719 3 585 573 633
2720 3 585 573 634
2721 4 633 573 634
2722 5 573 585 395
2723 5 573 585 1880
2724 6 395 585 1880
2725 9 535 630 571
2726 9 536 633 573
2727 9 538 634 573
2728 7 340 388 581
2729 7 340 388 375
2730 6 581 388 375
2731 7 346 394 584
2732 7 346 394 384
2733 6 584 394 384
2734 1 612 535 625
2735 1 612 535 630
2736 1 612 535 636
2737 2 625 535 630
2738 2 625 535 636
2739 2 630 535 636
2740 1 612 536 626
2741 1 612 536 632
2742 1 612 536 633
2743 2 626 536 632
2744 2 626 536 633
2745 2 632 536 633
2746 1 612 537 627
2747 1 612 537 631
2748 1 612 537 635
2749 2 627 537 631
2750 2 627 537 635
2751 2 631 537 635
2752 3 581 569 625
2753 3 581 569 626
2754 4 625 569 626
2755 3 584 572 631
2756 3 584 572 632
2757 4 631 572 632
2758 5 569 581 493
2759 5 569 581 388
2760 6 493 581 388
2761 5 572 584 605
2762 5 572 584 394
2763 6 605 584 394
2764 7 557 605 584
2765 7 557 605 595
2766 6 584 605 595
2767 8 535 612 536
2768 8 535 612 537
2769 8 535 612 538
2770 8 536 612 537
2771 8 536 612 538
2772 8 537 612 538
2773 9 535 625 569
2774 9 536 626 569
2775 9 537 631 572
2776 9 536 632 572
2777 9 535 636 574
2778 7 560 608 1221
2779 7 560 608 594
2780 6 1221 608 594
2781 7 976 1024 1217
2782 7 976 1024 1011
2783 6 1217 1024 1011
2784 7 983 1031 1221
2785 7 983 1031 1017
2786 6 1221 1031 1017
2787 1 1248 1171 1261
2788 1 1248 1171 1266
2789 1 1248 1171 1272
2790 2 1261 1171 1266
2791 2 1261 1171 1272
2792 2 1266 1171 1272
2793 1 1248 1172 1262
2794 1 1248 1172 1268
2795 1 1248 1172 1269
2796 2 1262 1172 1268
2797 2 1262 1172 1269
2798 2 1268 1172 1269
2799 1 1248 1173 1263
2800 1 1248 1173 1267
2801 1 1248 1173 1271
2802 2 1263 1173 1267
2803 2 1263 1173 1271
2804 2 1267 1173 1271
2805 1 1248 1174 1264
2806 1 1248 1174 1265
2807 1 1248 1174 1270
2808 2 1264 1174 1265
2809 2 1264 1174 1270
2810 2 1265 1174 1270
2811 3 1217 1205 1261
2812 3 1217 1205 1262
2813 4 1261 1205 1262
2814 3 1220 1208 1267
2815 3 1220 1208 1268
2816 4 1267 1208 1268
2817 3 1221 1209 1269
2818 3 1221 1209 1270
2819 4 1269 1209 1270
2820 5 1205 1217 1129
2821 5 1205 1217 1024
2822 6 1129 1217 1024
2823 5 1209 1221 1031
2824 5 1209 1221 608
2825 6 1031 1221 608
2826 8 1171 1248 1172
2827 8 1171 1248 1173
2828 8 1171 1248 1174
2829 8 1172 1248 1173
2830 8 1172 1248 1174
2831 8 1173 1248 1174
2832 9 1171 1261 1205
2833 9 1172 1262 1205
2834 9 1171 1266 1207
2835 9 1172 1268 1208
2836 9 1172 1269 1209
2837 9 1174 1270 1209
2838 9 1171 1272 1210
2839 7 982 1030 1220
2840 7 982 1030 1020
2841 6 1220 1030 1020
2842 5 1208 1220 1241
2843 5 1208 1220 1030
2844 6 1241 1220 1030
2845 7 1193 1241 1220
2846 7 1193 1241 1231
2847 6 1220 1241 1231
2848 9 1173 1267 1208
2849 7 1196 1244 1857
2850 7 1196 1244 1230
2851 6 1857 1244 1230
2852 7 1619 1667 1857
2853 7 1619 1667 1653
2854 6 1857 1667 1653
2855 1 1884 1810 1900
2856 1 1884 1810 1901
2857 1 1884 1810 1906
2858 2 1900 1810 1901
2859 2 1900 1810 1906
2860 2 1901 1810 1906
2861 3 1857 1845 1905
2862 3 1857 1845 1906
2863 4 1905 1845 1906
2864 5 1845 1857 1667
2865 5 1845 1857 1244
2866 6 1667 1857 1244
2867 9 1807 1902 1843
2868 9 1808 1905 1845
2869 9 1810 1906 1845
2870 7 1612 1660 1853
2871 7 1612 1660 1647
2872 6 1853 1660 1647
2873 7 1618 1666 1856
2874 7 1618 1666 1656
2875 6 1856 1666 1656
2876 1 1884 1807 1897
2877 1 1884 1807 1902
2878 1 1884 1807 1908
2879 2 1897 1807 1902
2880 2 1897 1807 1908
2881 2 1902 1807 1908
2882 1 1884 1808 1898
2883 1 1884 1808 1904
2884 1 1884 1808 1905
2885 2 1898 1808 1904
2886 2 1898 1808 1905
2887 2 1904 1808 1905
2888 1 1884 1809 1899
2889 1 1884 1809 1903
2890 1 1884 1809 1907
2891 2 1899 1809 1903
2892 2 1899 1809 1907
2893 2 1903 1809 1907
2894 3 1853 1841 1897
2895 3 1853 1841 1898
2896 4 1897 1841 1898
2897 3 1856 1844 1903
2898 3 1856 1844 1904
2899 4 1903 1844 1904
2900 5 1841 1853 1765
2901 5 1841 1853 1660
2902 6 1765 1853 1660
2903 5 1844 1856 1877
2904 5 1844 1856 1666
2905 6 1877 1856 1666
2906 7 1829 1877 1856
2907 7 1829 1877 1867
2908 6 1856 1877 1867
2909 8 1807 1884 1808
2910 8 1807 1884 1809
2911 8 1807 1884 1810
2912 8 1808 1884 1809
2913 8 1808 1884 1810
2914 8 1809 1884 1810
2915 9 1807 1897 1841
2916 9 1808 1898 1841
2917 9 1809 1903 1844
2918 9 1808 1904 1844
2919 9 1807 1908 1846
2920 7 1832 1880 585
2921 7 1832 1880 1866
2922 6 585 1880 1866
2923 3 583 571 629
2924 3 583 571 630
2925 4 629 571 630
2926 5 571 583 1875
2927 5 571 583 498
2928 6 1875 583 498
2929 9 538 628 570
2930 9 538 629 571
2931 3 582 570 627
2932 3 582 570 628
2933 4 627 570 628
2934 3 586 574 635
2935 3 586 574 636
2936 4 635 574 636
2937 5 570 582 601
2938 5 570 582 1874
2939 6 601 582 1874
2940 5 574 586 609
2941 5 574 586 504
2942 6 609 586 504
2943 7 544 592 471
2944 7 544 592 609
2945 6 471 592 609
2946 7 553 601 582
2947 7 553 601 589
2948 6 582 601 589
2949 7 561 609 586
2950 7 561 609 592
2951 6 586 609 592
2952 9 537 627 570
2953 9 537 635 574
2954 7 550 598 474
2955 7 550 598 603
2956 6 474 598 603
2957 7 555 603 1219
2958 7 555 603 598
2959 6 1219 603 598
2960 7 554 602 1218
2961 7 554 602 590
2962 6 1218 602 590
2963 3 1218 1206 1263
2964 3 1218 1206 1264
2965 4 1263 1206 1264
2966 3 1219 1207 1265
2967 3 1219 1207 1266
2968 4 1265 1207 1266
2969 3 1222 1210 1271
2970 3 1222 1210 1272
2971 4 1271 1210 1272
2972 5 1206 1218 1237
2973 5 1206 1218 602
2974 6 1237 1218 602
2975 5 1207 1219 603
2976 5 1207 1219 1134
2977 6 603 1219 1134
2978 7 1189 1237 1218
2979 7 1189 1237 1225
2980 6 1218 1237 1225
2981 9 1173 1263 1206
2982 9 1174 1264 1206
2983 9 1174 1265 1207
2984 5 1210 1222 1245
2985 5 1210 1222 1140
2986 6 1245 1222 1140
2987 7 1180 1228 1107
2988 7 1180 1228 1245
2989 6 1107 1228 1245
2990 7 1197 1245 1222
2991 7 1197 1245 1228
2992 6 1222 1245 1228
2993 9 1173 1271 1210
2994 7 1186 1234 1110
2995 7 1186 1234 1239
2996 6 1110 1234 1239
2997 7 1191 1239 1855
2998 7 1191 1239 1234
2999 6 1855 1239 1234
3000 3 1855 1843 1901
3001 3 1855 1843 1902
3002 4 1901 1843 1902
3003 5 1843 1855 1239
3004 5 1843 1855 1770
3005 6 1239 1855 1770
3006 9 1810 1901 1843
3007 7 1190 1238 1854
3008 7 1190 1238 1226
3009 6 1854 1238 1226
3010 3 1854 1842 1899
3011 3 1854 1842 1900
3012 4 1899 1842 1900
3013 3 1858 1846 1907
3014 3 1858 1846 1908
3015 4 1907 1846 1908
3016 5 1842 1854 1873
3017 5 1842 1854 1238
3018 6 1873 1854 1238
3019 5 1846 1858 1881
3020 5 1846 1858 1776
3021 6 1881 1858 1776
3022 7 1816 1864 1743
3023 7 1816 1864 1881
3024 6 1743 1864 1881
3025 7 1825 1873 1854
3026 7 1825 1873 1861
3027 6 1854 1873 1861
3028 7 1833 1881 1858
3029 7 1833 1881 1864
3030 6 1858 1881 1864
3031 9 1809 1899 1842
3032 9 1810 1900 1842
3033 9 1809 1907 1846
3034 7 1822 1870 1746
3035 7 1822 1870 1875
3036 6 1746 1870 1875
3037 7 1826 1874 582
3038 7 1826 1874 1862
3039 6 582 1874 1862
3040 7 1827 1875 583
3041 7 1827 1875 1870
3042 6 583 1875 1870
3043 7 559 607 161
3044 7 559 607 593
3045 6 161 607 593
3046 7 539 587 469
3047 7 539 587 600
3048 6 469 587 600
3049 7 552 600 157
3050 7 552 600 587
3051 6 157 600 587
3052 7 558 606 160
3053 7 558 606 596
3054 6 160 606 596
3055 7 1175 1223 1105
3056 7 1175 1223 1236
3057 6 1105 1223 1236
3058 7 1188 1236 793
3059 7 1188 1236 1223
3060 6 793 1236 1223
3061 7 1195 1243 797
3062 7 1195 1243 1229
3063 6 797 1243 1229
3064 7 1194 1242 796
3065 7 1194 1242 1232
3066 6 796 1242 1232
3067 7 1831 1879 1433
3068 7 1831 1879 1865
3069 6 1433 1879 1865
3070 7 1811 1859 1741
3071 7 1811 1859 1872
3072 6 1741 1859 1872
3073 7 1824 1872 1429
3074 7 1824 1872 1859
3075 6 1429 1872 1859
3076 7 1830 1878 1432
3077 7 1830 1878 1868
3078 6 1432 1878 1868
3079 7 116 164 575
3080 7 116 164 175
3081 6 575 164 175
3082 7 123 171 579
3083 7 123 171 181
3084 6 579 171 181
3085 7 127 175 51
3086 7 127 175 164
3087 6 51 175 164
3088 7 122 170 578
3089 7 122 170 184
3090 6 578 170 184
3091 7 759 807 1215
3092 7 759 807 817
3093 6 1215 807 817
3094 7 752 800 1211
3095 7 752 800 811
3096 6 1211 800 811
3097 7 758 806 1214
3098 7 758 806 820
3099 6 1214 806 820
3100 7 763 811 687
3101 7 763 811 800
3102 6 687 811 800
3103 7 1388 1436 1847
3104 7 1388 1436 1447
3105 6 1847 1436 1447
3106 7 1395 1443 1851
3107 7 1395 1443 1453
3108 6 1851 1443 1453
3109 7 1399 1447 1323
3110 7 1399 1447 1436
3111 6 1323 1447 1436
3112 7 1394 1442 1850
3113 7 1394 1442 1456
3114 6 1850 1442 1456
3115 7 117 165 1424
3116 7 117 165 177
3117 6 1424 165 177
3118 7 125 173 1428
3119 7 125 173 180
3120 6 1428 173 180
3121 7 132 180 53
3122 7 132 180 173
3123 6 53 180 173
3124 1 187 110 192
3125 1 187 110 193
3126 1 187 110 198
3127 2 192 110 193
3128 2 192 110 198
3129 2 193 110 198
3130 3 153 141 193
3131 3 153 141 194
3132 4 193 141 194
3133 5 141 153 167
3134 5 141 153 62
3135 6 167 153 62
3136 7 118 166 152
3137 7 118 166 178
3138 6 152 166 178
3139 7 119 167 153
3140 7 119 167 186
3141 6 153 167 186
3142 7 138 186 56
3143 7 138 186 167
3144 6 56 186 167
3145 9 110 192 140
3146 9 110 193 141
3147 9 107 194 141
3148 9 110 198 143
3149 1 187 107 189
3150 1 187 107 194
3151 1 187 107 200
3152 2 189 107 194
3153 2 189 107 200
3154 2 194 107 200
3155 1 187 109 191
3156 1 187 109 195
3157 1 187 109 199
3158 2 191 109 195
3159 2 191 109 199
3160 2 195 109 199
3161 3 152 140 191
3162 3 152 140 192
3163 4 191 140 192
3164 3 156 144 199
3165 3 156 144 200
3166 4 199 144 200
3167 5 140 152 801
3168 5 140 152 166
3169 6 801 152 166
3170 5 144 156 809
3171 5 144 156 68
3172 6 809 156 68
3173 8 107 187 108
3174 8 107 187 109
3175 8 107 187 110
3176 8 108 187 109
3177 8 108 187 110
3178 8 109 187 110
3179 9 109 191 140
3180 9 109 195 142
3181 9 109 199 144
3182 9 107 200 144
3183 7 753 801 152
3184 7 753 801 813
3185 6 152 801 813
3186 7 761 809 156
3187 7 761 809 816
3188 6 156 809 816
3189 7 768 816 689
3190 7 768 816 809
3191 6 689 816 809
3192 7 755 803 789
3193 7 755 803 822
3194 6 789 803 822
3195 7 774 822 692
3196 7 774 822 803
3197 6 692 822 803
3198 1 823 743 825
3199 1 823 743 830
3200 1 823 743 836
3201 2 825 743 830
3202 2 825 743 836
3203 2 830 743 836
3204 1 823 745 827
3205 1 823 745 831
3206 1 823 745 835
3207 2 827 745 831
3208 2 827 745 835
3209 2 831 745 835
3210 1 823 746 828
3211 1 823 746 829
3212 1 823 746 834
3213 2 828 746 829
3214 2 828 746 834
3215 2 829 746 834
3216 3 788 776 827
3217 3 788 776 828
3218 4 827 776 828
3219 3 789 777 829
3220 3 789 777 830
3221 4 829 777 830
3222 3 792 780 835
3223 3 792 780 836
3224 4 835 780 836
3225 5 776 788 1437
3226 5 776 788 802
3227 6 1437 788 802
3228 5 777 789 803
3229 5 777 789 698
3230 6 803 789 698
3231 7 754 802 788
3232 7 754 802 814
3233 6 788 802 814
3234 8 743 823 744
3235 8 743 823 745
3236 8 743 823 746
3237 8 744 823 745
3238 8 744 823 746
3239 8 745 823 746
3240 9 745 827 776
3241 9 746 828 776
3242 9 746 829 777
3243 9 743 830 777
3244 9 746 834 779
3245 9 743 836 780
3246 7 1389 1437 788
3247 7 1389 1437 1449
3248 6 788 1437 1449
3249 5 780 792 1445
3250 5 780 792 704
3251 6 1445 792 704
3252 9 745 831 778
3253 9 745 835 780
3254 7 1397 1445 792
3255 7 1397 1445 1452
3256 6 792 1445 1452
3257 7 1404 1452 1325
3258 7 1404 1452 1445
3259 6 1325 1452 1445
3260 1 1459 1382 1464
3261 1 1459 1382 1465
3262 1 1459 1382 1470
3263 2 1464 1382 1465
3264 2 1464 1382 1470
3265 2 1465 1382 1470
3266 3 1425 1413 1465
3267 3 1425 1413 1466
3268 4 1465 1413 1466
3269 5 1413 1425 1439
3270 5 1413 1425 1334
3271 6 1439 1425 1334
3272 7 1391 1439 1425
3273 7 1391 1439 1458
3274 6 1425 1439 1458
3275 7 1410 1458 1328
3276 7 1410 1458 1439
3277 6 1328 1458 1439
3278 9 1382 1465 1413
3279 9 1379 1466 1413
3280 9 1382 1470 1415
3281 1 1459 1379 1461
3282 1 1459 1379 1466
3283 1 1459 1379 1472
3284 2 1461 1379 1466
3285 2 1461 1379 1472
3286 2 1466 1379 1472
3287 1 1459 1381 1463
3288 1 1459 1381 1467
3289 1 1459 1381 1471
3290 2 1463 1381 1467
3291 2 1463 1381 1471
3292 2 1467 1381 1471
3293 3 1424 1412 1463
3294 3 1424 1412 1464
3295 4 1463 1412 1464
3296 3 1428 1416 1471
3297 3 1428 1416 1472
3298 4 1471 1416 1472
3299 5 1412 1424 165
3300 5 1412 1424 1438
3301 6 165 1424 1438
3302 5 1416 1428 173
3303 5 1416 1428 1340
3304 6 173 1428 1340
3305 7 1390 1438 1424
3306 7 1390 1438 1450
3307 6 1424 1438 1450
3308 8 1379 1459 1380
3309 8 1379 1459 1381
3310 8 1379 1459 1382
3311 8 1380 1459 1381
3312 8 1380 1459 1382
3313 8 1381 1459 1382
3314 9 1381 1463 1412
3315 9 1382 1464 1412
3316 9 1381 1467 1414
3317 9 1381 1471 1416
3318 9 1379 1472 1416
3319 7 121 169 1426
3320 7 121 169 183
3321 6 1426 169 183
3322 3 155 143 197
3323 3 155 143 198
3324 4 197 143 198
3325 5 143 155 383
3326 5 143 155 172
3327 6 383 155 172
3328 7 124 172 155
3329 7 124 172 182
3330 6 155 172 182
3331 9 108 197 143
3332 7 335 383 155
3333 7 335 383 393
3334 6 155 383 393
3335 1 187 108 190
3336 1 187 108 196
3337 1 187 108 197
3338 2 190 108 196
3339 2 190 108 197
3340 2 196 108 197
3341 3 151 139 189
3342 3 151 139 190
3343 4 189 139 190
3344 3 154 142 195
3345 3 154 142 196
3346 4 195 142 196
3347 5 139 151 57
3348 5 139 151 376
3349 6 57 151 376
3350 5 142 154 805
3351 5 142 154 382
3352 6 805 154 382
3353 9 107 189 139
3354 9 108 190 139
3355 9 108 196 142
3356 7 328 376 151
3357 7 328 376 387
3358 6 151 376 387
3359 7 334 382 154
3360 7 334 382 396
3361 6 154 382 396
3362 7 339 387 263
3363 7 339 387 376
3364 6 263 387 376
3365 7 757 805 154
3366 7 757 805 819
3367 6 154 805 819
3368 7 760 808 791
3369 7 760 808 818
3370 6 791 808 818
3371 1 823 744 826
3372 1 823 744 832
3373 1 823 744 833
3374 2 826 744 832
3375 2 826 744 833
3376 2 832 744 833
3377 3 787 775 825
3378 3 787 775 826
3379 4 825 775 826
3380 3 790 778 831
3381 3 790 778 832
3382 4 831 778 832
3383 3 791 779 833
3384 3 791 779 834
3385 4 833 779 834
3386 5 775 787 693
3387 5 775 787 1012
3388 6 693 787 1012
3389 5 779 791 1019
3390 5 779 791 808
3391 6 1019 791 808
3392 9 743 825 775
3393 9 744 826 775
3394 9 744 832 778
3395 9 744 833 779
3396 7 964 1012 787
3397 7 964 1012 1023
3398 6 787 1012 1023
3399 7 971 1019 791
3400 7 971 1019 1029
3401 6 791 1019 1029
3402 7 975 1023 899
3403 7 975 1023 1012
3404 6 899 1023 1012
3405 5 778 790 1441
3406 5 778 790 1018
3407 6 1441 790 1018
3408 7 970 1018 790
3409 7 970 1018 1032
3410 6 790 1018 1032
3411 7 1393 1441 790
3412 7 1393 1441 1455
3413 6 790 1441 1455
3414 3 1427 1415 1469
3415 3 1427 1415 1470
3416 4 1469 1415 1470
3417 5 1415 1427 1655
3418 5 1415 1427 1444
3419 6 1655 1427 1444
3420 7 1396 1444 1427
3421 7 1396 1444 1454
3422 6 1427 1444 1454
3423 9 1380 1469 1415
3424 7 1607 1655 1427
3425 7 1607 1655 1665
3426 6 1427 1655 1665
3427 1 1459 1380 1462
3428 1 1459 1380 1468
3429 1 1459 1380 1469
3430 2 1462 1380 1468
3431 2 1462 1380 1469
3432 2 1468 1380 1469
3433 3 1423 1411 1461
3434 3 1423 1411 1462
3435 4 1461 1411 1462
3436 3 1426 1414 1467
3437 3 1426 1414 1468
3438 4 1467 1414 1468
3439 5 1411 1423 1329
3440 5 1411 1423 1648
3441 6 1329 1423 1648
3442 5 1414 1426 169
3443 5 1414 1426 1654
3444 6 169 1426 1654
3445 9 1379 1461 1411
3446 9 1380 1462 1411
3447 9 1380 1468 1414
3448 7 1600 1648 1423
3449 7 1600 1648 1659
3450 6 1423 1648 1659
3451 7 1606 1654 1426
3452 7 1606 1654 1668
3453 6 1426 1654 1668
3454 7 1611 1659 1535
3455 7 1611 1659 1648
3456 6 1535 1659 1648
3457 7 329 377 1636
3458 7 329 377 389
3459 6 1636 377 389
3460 7 337 385 1640
3461 7 337 385 392
3462 6 1640 385 392
3463 7 344 392 265
3464 7 344 392 385
3465 6 265 392 385
3466 5 353 365 379
3467 5 353 365 274
3468 6 379 365 274
3469 7 331 379 365
3470 7 331 379 398
3471 6 365 379 398
3472 7 350 398 268
3473 7 350 398 379
3474 6 268 398 379
3475 9 322 405 353
3476 1 399 321 403
3477 1 399 321 407
3478 1 399 321 411
3479 2 403 321 407
3480 2 403 321 411
3481 2 407 321 411
3482 1 399 322 404
3483 1 399 322 405
3484 1 399 322 410
3485 2 404 322 405
3486 2 404 322 410
3487 2 405 322 410
3488 3 364 352 403
3489 3 364 352 404
3490 4 403 352 404
3491 3 365 353 405
3492 3 365 353 406
3493 4 405 353 406
3494 3 368 356 411
3495 3 368 356 412
3496 4 411 356 412
3497 5 352 364 1013
3498 5 352 364 378
3499 6 1013 364 378
3500 5 356 368 1021
3501 5 356 368 280
3502 6 1021 368 280
3503 7 330 378 364
3504 7 330 378 390
3505 6 364 378 390
3506 9 321 403 352
3507 9 322 404 352
3508 9 319 406 353
3509 9 321 411 356
3510 9 319 412 356
3511 7 965 1013 364
3512 7 965 1013 1025
3513 6 364 1013 1025
3514 7 973 1021 368
3515 7 973 1021 1028
3516 6 368 1021 1028
3517 7 980 1028 901
3518 7 980 1028 1021
3519 6 901 1028 1021
3520 1 1035 958 1040
3521 1 1035 958 1041
3522 1 1035 958 1046
3523 2 1040 958 1041
3524 2 1040 958 1046
3525 2 1041 958 1046
3526 3 1000 988 1039
3527 3 1000 988 1040
3528 4 1039 988 1040
3529 3 1001 989 1041
3530 3 1001 989 1042
3531 4 1041 989 1042
3532 5 988 1000 1649
3533 5 988 1000 1014
3534 6 1649 1000 1014
3535 5 989 1001 1015
3536 5 989 1001 910
3537 6 1015 1001 910
3538 7 966 1014 1000
3539 7 966 1014 1026
3540 6 1000 1014 1026
3541 7 967 1015 1001
3542 7 967 1015 1034
3543 6 1001 1015 1034
3544 7 986 1034 904
3545 7 986 1034 1015
3546 6 904 1034 1015
3547 9 958 1040 988
3548 9 958 1041 989
3549 9 955 1042 989
3550 1 1035 957 1039
3551 1 1035 957 1043
3552 1 1035 957 1047
3553 2 1039 957 1043
3554 2 1039 957 1047
3555 2 1043 957 1047
3556 3 1004 992 1047
3557 3 1004 992 1048
3558 4 1047 992 1048
3559 5 992 1004 1657
3560 5 992 1004 916
3561 6 1657 1004 916
3562 9 957 1039 988
3563 9 957 1047 992
3564 9 955 1048 992
3565 7 1601 1649 1000
3566 7 1601 1649 1661
3567 6 1000 1649 1661
3568 7 1609 1657 1004
3569 7 1609 1657 1664
3570 6 1004 1657 1664
3571 7 1616 1664 1537
3572 7 1616 1664 1657
3573 6 1537 1664 1657
3574 5 1625 1637 1651
3575 5 1625 1637 1546
3576 6 1651 1637 1546
3577 7 1603 1651 1637
3578 7 1603 1651 1670
3579 6 1637 1651 1670
3580 7 1622 1670 1540
3581 7 1622 1670 1651
3582 6 1540 1670 1651
3583 1 1671 1593 1675
3584 1 1671 1593 1679
3585 1 1671 1593 1683
3586 2 1675 1593 1679
3587 2 1675 1593 1683
3588 2 1679 1593 1683
3589 1 1671 1594 1676
3590 1 1671 1594 1677
3591 1 1671 1594 1682
3592 2 1676 1594 1677
3593 2 1676 1594 1682
3594 2 1677 1594 1682
3595 3 1636 1624 1675
3596 3 1636 1624 1676
3597 4 1675 1624 1676
3598 3 1637 1625 1677
3599 3 1637 1625 1678
3600 4 1677 1625 1678
3601 3 1640 1628 1683
3602 3 1640 1628 1684
3603 4 1683 1628 1684
3604 5 1624 1636 377
3605 5 1624 1636 1650
3606 6 377 1636 1650
3607 5 1628 1640 385
3608 5 1628 1640 1552
3609 6 385 1640 1552
3610 7 1602 1650 1636
3611 7 1602 1650 1662
3612 6 1636 1650 1662
3613 9 1593 1675 1624
3614 9 1594 1676 1624
3615 9 1594 1677 1625
3616 9 1591 1678 1625
3617 9 1593 1683 1628
3618 9 1591 1684 1628
3619 7 333 381 1638
3620 7 333 381 395
3621 6 1638 381 395
3622 5 355 367 595
3623 5 355 367 384
3624 6 595 367 384
3625 7 336 384 367
3626 7 336 384 394
3627 6 367 384 394
3628 9 322 410 355
3629 7 547 595 367
3630 7 547 595 605
3631 6 367 595 605
3632 1 399 319 401
3633 1 399 319 406
3634 1 399 319 412
3635 2 401 319 406
3636 2 401 319 412
3637 2 406 319 412
3638 1 399 320 402
3639 1 399 320 408
3640 1 399 320 409
3641 2 402 320 408
3642 2 402 320 409
3643 2 408 320 409
3644 3 363 351 401
3645 3 363 351 402
3646 4 401 351 402
3647 3 366 354 407
3648 3 366 354 408
3649 4 407 354 408
3650 3 367 355 409
3651 3 367 355 410
3652 4 409 355 410
3653 5 351 363 269
3654 5 351 363 588
3655 6 269 363 588
3656 5 354 366 1017
3657 5 354 366 594
3658 6 1017 366 594
3659 8 319 399 320
3660 8 319 399 321
3661 8 319 399 322
3662 8 320 399 321
3663 8 320 399 322
3664 8 321 399 322
3665 9 319 401 351
3666 9 320 402 351
3667 9 321 407 354
3668 9 320 408 354
3669 9 320 409 355
3670 7 540 588 363
3671 7 540 588 599
3672 6 363 588 599
3673 7 546 594 366
3674 7 546 594 608
3675 6 366 594 608
3676 7 551 599 475
3677 7 551 599 588
3678 6 475 599 588
3679 7 969 1017 366
3680 7 969 1017 1031
3681 6 366 1017 1031
3682 1 1035 955 1037
3683 1 1035 955 1042
3684 1 1035 955 1048
3685 2 1037 955 1042
3686 2 1037 955 1048
3687 2 1042 955 1048
3688 1 1035 956 1038
3689 1 1035 956 1044
3690 1 1035 956 1045
3691 2 1038 956 1044
3692 2 1038 956 1045
3693 2 1044 956 1045
3694 3 999 987 1037
3695 3 999 987 1038
3696 4 1037 987 1038
3697 3 1003 991 1045
3698 3 1003 991 1046
3699 4 1045 991 1046
3700 5 987 999 905
3701 5 987 999 1224
3702 6 905 999 1224
3703 5 991 1003 1231
3704 5 991 1003 1020
3705 6 1231 1003 1020
3706 7 972 1020 1003
3707 7 972 1020 1030
3708 6 1003 1020 1030
3709 8 955 1035 956
3710 8 955 1035 957
3711 8 955 1035 958
3712 8 956 1035 957
3713 8 956 1035 958
3714 8 957 1035 958
3715 9 955 1037 987
3716 9 956 1038 987
3717 9 956 1045 991
3718 9 958 1046 991
3719 7 1176 1224 999
3720 7 1176 1224 1235
3721 6 999 1224 1235
3722 7 1183 1231 1003
3723 7 1183 1231 1241
3724 6 1003 1231 1241
3725 7 1187 1235 1111
3726 7 1187 1235 1224
3727 6 1111 1235 1224
3728 3 1002 990 1043
3729 3 1002 990 1044
3730 4 1043 990 1044
3731 5 990 1002 1653
3732 5 990 1002 1230
3733 6 1653 1002 1230
3734 9 957 1043 990
3735 9 956 1044 990
3736 7 1182 1230 1002
3737 7 1182 1230 1244
3738 6 1002 1230 1244
3739 7 1605 1653 1002
3740 7 1605 1653 1667
3741 6 1002 1653 1667
3742 5 1627 1639 1867
3743 5 1627 1639 1656
3744 6 1867 1639 1656
3745 7 1608 1656 1639
3746 7 1608 1656 1666
3747 6 1639 1656 1666
3748 7 1819 1867 1639
3749 7 1819 1867 1877
3750 6 1639 1867 1877
3751 1 1671 1591 1673
3752 1 1671 1591 1678
3753 1 1671 1591 1684
3754 2 1673 1591 1678
3755 2 1673 1591 1684
3756 2 1678 1591 1684
3757 1 1671 1592 1674
3758 1 1671 1592 1680
3759 1 1671 1592 1681
3760 2 1674 1592 1680
3761 2 1674 1592 1681
3762 2 1680 1592 1681
3763 3 1635 1623 1673
3764 3 1635 1623 1674
3765 4 1673 1623 1674
3766 3 1638 1626 1679
3767 3 1638 1626 1680
3768 4 1679 1626 1680
3769 3 1639 1627 1681
3770 3 1639 1627 1682
3771 4 1681 1627 1682
3772 5 1623 1635 1541
3773 5 1623 1635 1860
3774 6 1541 1635 1860
3775 5 1626 1638 381
3776 5 1626 1638 1866
3777 6 381 1638 1866
3778 8 1591 1671 1592
3779 8 1591 1671 1593
3780 8 1591 1671 1594
3781 8 1592 1671 1593
3782 8 1592 1671 1594
3783 8 1593 1671 1594
3784 9 1591 1673 1623
3785 9 1592 1674 1623
3786 9 1593 1679 1626
3787 9 1592 1680 1626
3788 9 1592 1681 1627
3789 9 1594 1682 1627
3790 7 1812 1860 1635
3791 7 1812 1860 1871
3792 6 1635 1860 1871
3793 7 1818 1866 1638
3794 7 1818 1866 1880
3795 6 1638 1866 1880
3796 7 1823 1871 1747
3797 7 1823 1871 1860
3798 6 1747 1871 1860
3799 7 541 589 1848
3800 7 541 589 601
3801 6 1848 589 601
3802 7 549 597 1852
3803 7 549 597 604
3804 6 1852 597 604
3805 7 556 604 477
3806 7 556 604 597
3807 6 477 604 597
3808 7 543 591 577
3809 7 543 591 610
3810 6 577 591 610
3811 7 562 610 480
3812 7 562 610 591
3813 6 480 610 591
3814 3 576 564 615
3815 3 576 564 616
3816 4 615 564 616
3817 5 564 576 1225
3818 5 564 576 590
3819 6 1225 576 590
3820 5 565 577 591
3821 5 565 577 486
3822 6 591 577 486
3823 7 542 590 576
3824 7 542 590 602
3825 6 576 590 602
3826 9 533 615 564
3827 9 534 616 564
3828 7 1177 1225 576
3829 7 1177 1225 1237
3830 6 576 1225 1237
3831 5 568 580 1233
3832 5 568 580 492
3833 6 1233 580 492
3834 7 1185 1233 580
3835 7 1185 1233 1240
3836 6 580 1233 1240
3837 7 1192 1240 1113
3838 7 1192 1240 1233
3839 6 1113 1240 1233
3840 5 1201 1213 1227
3841 5 1201 1213 1122
3842 6 1227 1213 1122
3843 7 1179 1227 1213
3844 7 1179 1227 1246
3845 6 1213 1227 1246
3846 7 1198 1246 1116
3847 7 1198 1246 1227
3848 6 1116 1246 1227
3849 3 1212 1200 1251
3850 3 1212 1200 1252
3851 4 1251 1200 1252
3852 5 1200 1212 1861
3853 5 1200 1212 1226
3854 6 1861 1212 1226
3855 5 1204 1216 1869
3856 5 1204 1216 1128
3857 6 1869 1216 1128
3858 7 1178 1226 1212
3859 7 1178 1226 1238
3860 6 1212 1226 1238
3861 9 1169 1251 1200
3862 9 1170 1252 1200
3863 7 1813 1861 1212
3864 7 1813 1861 1873
3865 6 1212 1861 1873
3866 7 1821 1869 1216
3867 7 1821 1869 1876
3868 6 1216 1869 1876
3869 7 1828 1876 1749
3870 7 1828 1876 1869
3871 6 1749 1876 1869
3872 7 1834 1882 1752
3873 7 1834 1882 1863
3874 6 1752 1882 1863
3875 3 1848 1836 1887
3876 3 1848 1836 1888
3877 4 1887 1836 1888
3878 5 1836 1848 589
3879 5 1836 1848 1862
3880 6 589 1848 1862
3881 5 1837 1849 1863
3882 5 1837 1849 1758
3883 6 1863 1849 1758
3884 7 1814 1862 1848
3885 7 1814 1862 1874
3886 6 1848 1862 1874
3887 7 1815 1863 1849
3888 7 1815 1863 1882
3889 6 1849 1863 1882
3890 9 1805 1887 1836
3891 9 1806 1888 1836
3892 5 1840 1852 597
3893 5 1840 1852 1764
3894 6 597 1852 1764
3895 7 545 593 1850
3896 7 545 593 607
3897 6 1850 593 607
3898 7 548 596 579
3899 7 548 596 606
3900 6 579 596 606
3901 1 611 531 613
3902 1 611 531 618
3903 1 611 531 624
3904 2 613 531 618
3905 2 613 531 624
3906 2 618 531 624
3907 1 611 532 614
3908 1 611 532 620
3909 1 611 532 621
3910 2 614 532 620
3911 2 614 532 621
3912 2 620 532 621
3913 1 611 533 615
3914 1 611 533 619
3915 1 611 533 623
3916 2 615 533 619
3917 2 615 533 623
3918 2 619 533 623
3919 1 611 534 616
3920 1 611 534 617
3921 1 611 534 622
3922 2 616 534 617
3923 2 616 534 622
3924 2 617 534 622
3925 3 575 563 613
3926 3 575 563 614
3927 4 613 563 614
3928 3 577 565 617
3929 3 577 565 618
3930 4 617 565 618
3931 3 578 566 619
3932 3 578 566 620
3933 4 619 566 620
3934 3 579 567 621
3935 3 579 567 622
3936 4 621 567 622
3937 3 580 568 623
3938 3 580 568 624
3939 4 623 568 624
3940 5 563 575 481
3941 5 563 575 164
3942 6 481 575 164
3943 5 567 579 171
3944 5 567 579 596
3945 6 171 579 596
3946 8 531 611 532
3947 8 531 611 533
3948 8 531 611 534
3949 8 532 611 533
3950 8 532 611 534
3951 8 533 611 534
3952 9 531 613 563
3953 9 532 614 563
3954 9 534 617 565
3955 9 531 618 565
3956 9 532 620 566
3957 9 532 621 567
3958 9 534 622 567
3959 9 531 624 568
3960 5 566 578 1229
3961 5 566 578 170
3962 6 1229 578 170
3963 9 533 619 566
3964 9 533 623 568
3965 7 1181 1229 578
3966 7 1181 1229 1243
3967 6 578 1229 1243
3968 1 1247 1170 1252
3969 1 1247 1170 1253
3970 1 1247 1170 1258
3971 2 1252 1170 1253
3972 2 1252 1170 1258
3973 2 1253 1170 1258
3974 3 1213 1201 1253
3975 3 1213 1201 1254
3976 4 1253 1201 1254
3977 3 1215 1203 1257
3978 3 1215 1203 1258
3979 4 1257 1203 1258
3980 5 1203 1215 807
3981 5 1203 1215 1232
3982 6 807 1215 1232
3983 7 1184 1232 1215
3984 7 1184 1232 1242
3985 6 1215 1232 1242
3986 9 1170 1253 1201
3987 9 1167 1254 1201
3988 9 1168 1257 1203
3989 9 1170 1258 1203
3990 1 1247 1167 1249
3991 1 1247 1167 1254
3992 1 1247 1167 1260
3993 2 1249 1167 1254
3994 2 1249 1167 1260
3995 2 1254 1167 1260
3996 1 1247 1168 1250
3997 1 1247 1168 1256
3998 1 1247 1168 1257
3999 2 1250 1168 1256
4000 2 1250 1168 1257
4001 2 1256 1168 1257
4002 1 1247 1169 1251
4003 1 1247 1169 1255
4004 1 1247 1169 1259
4005 2 1251 1169 1255
4006 2 1251 1169 1259
4007 2 1255 1169 1259
4008 3 1211 1199 1249
4009 3 1211 1199 1250
4010 4 1249 1199 1250
4011 3 1214 1202 1255
4012 3 1214 1202 1256
4013 4 1255 1202 1256
4014 3 1216 1204 1259
4015 3 1216 1204 1260
4016 4 1259 1204 1260
4017 5 1199 1211 1117
4018 5 1199 1211 800
4019 6 1117 1211 800
4020 5 1202 1214 1865
4021 5 1202 1214 806
4022 6 1865 1214 806
4023 8 1167 1247 1168
4024 8 1167 1247 1169
4025 8 1167 1247 1170
4026 8 1168 1247 1169
4027 8 1168 1247 1170
4028 8 1169 1247 1170
4029 9 1167 1249 1199
4030 9 1168 1250 1199
4031 9 1169 1255 1202
4032 9 1168 1256 1202
4033 9 1169 1259 1204
4034 9 1167 1260 1204
4035 7 1817 1865 1214
4036 7 1817 1865 1879
4037 6 1214 1865 1879
4038 1 1883 1803 1885
4039 1 1883 1803 1890
4040 1 1883 1803 1896
4041 2 1885 1803 1890
4042 2 1885 1803 1896
4043 2 1890 1803 1896
4044 1 1883 1804 1886
4045 1 1883 1804 1892
4046 1 1883 1804 1893
4047 2 1886 1804 1892
4048 2 1886 1804 1893
4049 2 1892 1804 1893
4050 1 1883 1805 1887
4051 1 1883 1805 1891
4052 1 1883 1805 1895
4053 2 1887 1805 1891
4054 2 1887 1805 1895
4055 2 1891 1805 1895
4056 1 1883 1806 1888
4057 1 1883 1806 1889
4058 1 1883 1806 1894
4059 2 1888 1806 1889
4060 2 1888 1806 1894
4061 2 1889 1806 1894
4062 3 1847 1835 1885
4063 3 1847 1835 1886
4064 4 1885 1835 1886
4065 3 1849 1837 1889
4066 3 1849 1837 1890
4067 4 1889 1837 1890
4068 3 1851 1839 1893
4069 3 1851 1839 1894
4070 4 1893 1839 1894
4071 5 1835 1847 1753
4072 5 1835 1847 1436
4073 6 1753 1847 1436
4074 5 1839 1851 1443
4075 5 1839 1851 1868
4076 6 1443 1851 1868
4077 7 1820 1868 1851
4078 7 1820 1868 1878
4079 6 1851 1868 1878
4080 8 1803 1883 1804
4081 8 1803 1883 1805
4082 8 1803 1883 1806
4083 8 1804 1883 1805
4084 8 1804 1883 1806
4085 8 1805 1883 1806
4086 9 1803 1885 1835
4087 9 1804 1886 1835
4088 9 1806 1889 1837
4089 9 1803 1890 1837
4090 9 1804 1892 1838
4091 9 1804 1893 1839
4092 9 1806 1894 1839
4093 9 1803 1896 1840
4094 3 1850 1838 1891
4095 3 1850 1838 1892
4096 4 1891 1838 1892
4097 3 1852 1840 1895
4098 3 1852 1840 1896
4099 4 1895 1840 1896
4100 5 1838 1850 593
4101 5 1838 1850 1442
4102 6 593 1850 1442
4103 9 1805 1891 1838
4104 9 1805 1895 1840

Dihedrals

1 1 99 41 53 1345
2 1 99 41 53 180
3 1 100 41 53 1345
4 1 100 41 53 180
5 2 53 41 99 8
6 2 100 41 99 8
7 2 53 41 100 5
8 2 99 41 100 5
9 1 103 43 55 501
10 1 103 43 55 1350
11 1 104 43 55 501
12 1 104 43 55 1350
13 2 55 43 103 6
14 2 104 43 103 6
15 2 55 43 104 8
16 2 103 43 104 8
17 3 43 55 501 453
18 3 43 55 501 487
19 3 1350 55 501 453
20 3 1350 55 501 487
21 3 43 55 1350 1302
22 3 43 55 1350 1336
23 3 501 55 1350 1302
24 3 501 55 1350 1336
25 1 95 39 51 175
26 1 95 39 51 494
27 1 96 39 51 175
28 1 96 39 51 494
29 2 51 39 95 5
30 2 96 39 95 5
31 2 51 39 96 6
32 2 95 39 96 6
33 1 101 42 54 75
34 1 101 42 54 500
35 1 102 42 54 75
36 1 102 42 54 500
37 2 54 42 101 7
38 2 102 42 101 7
39 2 54 42 102 6
40 2 101 42 102 6
41 1 105 44 56 79
42 1 105 44 56 186
43 1 106 44 56 79
44 1 106 44 56 186
45 2 56 44 105 7
46 2 106 44 105 7
47 2 56 44 106 5
48 2 105 44 106 5
49 3 39 51 175 127
50 3 39 51 175 164
51 3 494 51 175 127
52 3 494 51 175 164
53 3 39 51 494 446
54 3 39 51 494 481
55 3 175 51 494 446
56 3 175 51 494 481
57 3 42 54 75 27
58 3 42 54 75 65
59 3 500 54 75 27
60 3 500 54 75 65
61 3 42 54 500 452
62 3 42 54 500 490
63 3 75 54 500 452
64 3 75 54 500 490
65 1 731 675 687 811
66 1 731 675 687 1130
67 1 732 675 687 811
68 1 732 675 687 1130
69 2 687 675 731 641
70 2 732 675 731 641
71 2 687 675 732 642
72 2 731 675 732 642
73 1 735 677 689 73
74 1 735 677 689 816
75 1 736 677 689 73
76 1 736 677 689 816
77 2 689 677 735 644
78 2 736 677 735 644
79 2 689 677 736 641
80 2 735 677 736 641
81 1 739 679 691 1137
82 1 739 679 691 78
83 1 740 679 691 1137
84 1 740 679 691 78
85 2 691 679 739 642
86 2 740 679 739 642
87 2 691 679 740 644
88 2 739 679 740 644
89 3 675 687 811 763
90 3 675 687 811 800
91 3 1130 687 811 763
92 3 1130 687 811 800
93 3 675 687 1130 1082
94 3 675 687 1130 1117
95 3 811 687 1130 1082
96 3 811 687 1130 1117
97 3 679 691 78 30
98 3 679 691 78 64
99 3 1137 691 78 30
100 3 1137 691 78 64
101 3 679 691 1137 1089
102 3 679 691 1137 1123
103 3 78 691 1137 1089
104 3 78 691 1137 1123
105 1 737 678 690 711
106 1 737 678 690 1136
107 1 738 678 690 711
108 1 738 678 690 1136
109 2 690 678 737 643
110 2 738 678 737 643
111 2 690 678 738 642
112 2 737 678 738 642
113 1 741 680 692 715
114 1 741 680 692 822
115 1 742 680 692 715
116 1 742 680 692 822
117 2 692 680 741 643
118 2 742 680 741 643
119 2 692 680 742 641
120 2 741 680 742 641
121 3 678 690 711 663
122 3 678 690 711 701
123 3 1136 690 711 663
124 3 1136 690 711 701
125 3 678 690 1136 1088
126 3 678 690 1136 1126
127 3 711 690 1136 1088
128 3 711 690 1136 1126
129 3 1315 1327 714 666
130 3 1315 1327 714 700
131 3 1773 1327 714 666
132 3 1773 1327 714 700
133 3 1315 1327 1773 1725
134 3 1315 1327 1773 1759
135 3 714 1327 1773 1725
136 3 714 1327 1773 1759
137 1 1367 1311 1323 1447
138 1 1367 1311 1323 1766
139 1 1368 1311 1323 1447
140 1 1368 1311 1323 1766
141 2 1323 1311 1367 1277
142 2 1368 1311 1367 1277
143 2 1323 1311 1368 1278
144 2 1367 1311 1368 1278
145 1 1371 1313 1325 709
146 1 1371 1313 1325 1452
147 1 1372 1313 1325 709
148 1 1372 1313 1325 1452
149 2 1325 1313 1371 1280
150 2 1372 1313 1371 1280
151 2 1325 1313 1372 1277
152 2 1371 1313 1372 1277
153 1 1373 1314 1326 1347
154 1 1373 1314 1326 1772
155 1 1374 1314 1326 1347
156 1 1374 1314 1326 1772
157 2 1326 1314 1373 1279
158 2 1374 1314 1373 1279
159 2 1326 1314 1374 1278
160 2 1373 1314 1374 1278
161 1 1375 1315 1327 1773
162 1 1375 1315 1327 714
163 1 1376 1315 1327 1773
164 1 1376 1315 1327 714
165 2 1327 1315 1375 1278
166 2 1376 1315 1375 1278
167 2 1327 1315 1376 1280
168 2 1375 1315 1376 1280
169 1 1377 1316 1328 1351
170 1 1377 1316 1328 1458
171 1 1378 1316 1328 1351
172 1 1378 1316 1328 1458
173 2 1328 1316 1377 1279
174 2 1378 1316 1377 1279
175 2 1328 1316 1378 1277
176 2 1377 1316 1378 1277
177 3 1311 1323 1447 1399
178 3 1311 1323 1447 1436
179 3 1766 1323 1447 1399
180 3 1766 1323 1447 1436
181 3 1311 1323 1766 1718
182 3 1311 1323 1766 1753
183 3 1447 1323 1766 1718
184 3 1447 1323 1766 1753
185 3 1314 1326 1347 1299
186 3 1314 1326 1347 1337
187 3 1772 1326 1347 1299
188 3 1772 1326 1347 1337
189 3 1314 1326 1772 1724
190 3 1314 1326 1772 1762
191 3 1347 1326 1772 1724
192 3 1347 1326 1772 1762
193 3 41 53 180 132
194 3 41 53 180 173
195 3 1345 53 180 132
196 3 1345 53 180 173
197 3 41 53 1345 1297
198 3 41 53 1345 1340
199 3 180 53 1345 1297
200 3 180 53 1345 1340
201 1 97 40 52 71
202 1 97 40 52 1344
203 1 98 40 52 71
204 1 98 40 52 1344
205 2 52 40 97 7
206 2 98 40 97 7
207 2 52 40 98 8
208 2 97 40 98 8
209 3 40 52 71 23
210 3 40 52 71 59
211 3 1344 52 71 23
212 3 1344 52 71 59
213 3 40 52 1344 1296
214 3 40 52 1344 1332
215 3 71 52 1344 1296
216 3 71 52 1344 1332
217 3 44 56 79 31
218 3 44 56 79 62
219 3 186 56 79 31
220 3 186 56 79 62
221 3 44 56 186 138
222 3 44 56 186 167
223 3 79 56 186 138
224 3 79 56 186 167
225 3 14 62 79 31
226 3 14 62 79 56
227 3 153 62 79 31
228 3 153 62 79 56
229 3 20 68 73 25
230 3 20 68 73 689
231 3 156 68 73 25
232 3 156 68 73 689
233 1 733 676 688 707
234 1 733 676 688 72
235 1 734 676 688 707
236 1 734 676 688 72
237 2 688 676 733 643
238 2 734 676 733 643
239 2 688 676 734 644
240 2 733 676 734 644
241 3 676 688 72 24
242 3 676 688 72 60
243 3 707 688 72 24
244 3 707 688 72 60
245 3 676 688 707 659
246 3 676 688 707 695
247 3 72 688 707 659
248 3 72 688 707 695
249 3 677 689 73 25
250 3 677 689 73 68
251 3 816 689 73 25
252 3 816 689 73 68
253 3 677 689 816 768
254 3 677 689 816 809
255 3 73 689 816 768
256 3 73 689 816 809
257 3 680 692 715 667
258 3 680 692 715 698
259 3 822 692 715 667
260 3 822 692 715 698
261 3 680 692 822 774
262 3 680 692 822 803
263 3 715 692 822 774
264 3 715 692 822 803
265 3 650 698 715 667
266 3 650 698 715 692
267 3 789 698 715 667
268 3 789 698 715 692
269 3 656 704 709 661
270 3 656 704 709 1325
271 3 792 704 709 661
272 3 792 704 709 1325
273 3 1313 1325 709 661
274 3 1313 1325 709 704
275 3 1452 1325 709 661
276 3 1452 1325 709 704
277 3 1313 1325 1452 1404
278 3 1313 1325 1452 1445
279 3 709 1325 1452 1404
280 3 709 1325 1452 1445
281 1 1369 1312 1324 1343
282 1 1369 1312 1324 708
283 1 1370 1312 1324 1343
284 1 1370 1312 1324 708
285 2 1324 1312 1369 1279
286 2 1370 1312 1369 1279
287 2 1324 1312 1370 1280
288 2 1369 1312 1370 1280
289 3 1312 1324 708 660
290 3 1312 1324 708 696
291 3 1343 1324 708 660
292 3 1343 1324 708 696
293 3 1312 1324 1343 1295
294 3 1312 1324 1343 1331
295 3 708 1324 1343 1295
296 3 708 1324 1343 1331
297 3 1316 1328 1351 1303
298 3 1316 1328 1351 1334
299 3 1458 1328 1351 1303
300 3 1458 1328 1351 1334
301 3 1316 1328 1458 1410
302 3 1316 1328 1458 1439
303 3 1351 1328 1458 1410
304 3 1351 1328 1458 1439
305 3 1286 1334 1351 1303
306 3 1286 1334 1351 1328
307 3 1425 1334 1351 1303
308 3 1425 1334 1351 1328
309 3 1292 1340 1345 1297
310 3 1292 1340 1345 53
311 3 1428 1340 1345 1297
312 3 1428 1340 1345 53
313 3 9 57 70 22
314 3 9 57 70 263
315 3 151 57 70 22
316 3 151 57 70 263
317 1 307 251 263 387
318 1 307 251 263 70
319 1 308 251 263 387
320 1 308 251 263 70
321 2 263 251 307 217
322 2 308 251 307 217
323 2 263 251 308 218
324 2 307 251 308 218
325 1 313 254 266 287
326 1 313 254 266 76
327 1 314 254 266 287
328 1 314 254 266 76
329 2 266 254 313 219
330 2 314 254 313 219
331 2 266 254 314 218
332 2 313 254 314 218
333 1 315 255 267 77
334 1 315 255 267 1562
335 1 316 255 267 77
336 1 316 255 267 1562
337 2 267 255 315 218
338 2 316 255 315 218
339 2 267 255 316 220
340 2 315 255 316 220
341 3 251 263 70 22
342 3 251 263 70 57
343 3 387 263 70 22
344 3 387 263 70 57
345 3 251 263 387 339
346 3 251 263 387 376
347 3 70 263 387 339
348 3 70 263 387 376
349 3 255 267 77 29
350 3 255 267 77 63
351 3 1562 267 77 29
352 3 1562 267 77 63
353 3 255 267 1562 1514
354 3 255 267 1562 1548
355 3 77 267 1562 1514
356 3 77 267 1562 1548
357 3 254 266 76 28
358 3 254 266 76 66
359 3 287 266 76 28
360 3 287 266 76 66
361 3 254 266 287 239
362 3 254 266 287 277
363 3 76 266 287 239
364 3 76 266 287 277
365 1 951 891 903 713
366 1 951 891 903 290
367 1 952 891 903 713
368 1 952 891 903 290
369 2 903 891 951 854
370 2 952 891 951 854
371 2 903 891 952 856
372 2 951 891 952 856
373 3 891 903 290 242
374 3 891 903 290 276
375 3 713 903 290 242
376 3 713 903 290 276
377 3 891 903 713 665
378 3 891 903 713 699
379 3 290 903 713 665
380 3 290 903 713 699
381 3 645 693 706 658
382 3 645 693 706 899
383 3 787 693 706 658
384 3 787 693 706 899
385 1 943 887 899 1023
386 1 943 887 899 706
387 1 944 887 899 1023
388 1 944 887 899 706
389 2 899 887 943 853
390 2 944 887 943 853
391 2 899 887 944 854
392 2 943 887 944 854
393 1 949 890 902 923
394 1 949 890 902 712
395 1 950 890 902 923
396 1 950 890 902 712
397 2 902 890 949 855
398 2 950 890 949 855
399 2 902 890 950 854
400 2 949 890 950 854
401 3 887 899 706 658
402 3 887 899 706 693
403 3 1023 899 706 658
404 3 1023 899 706 693
405 3 887 899 1023 975
406 3 887 899 1023 1012
407 3 706 899 1023 975
408 3 706 899 1023 1012
409 3 890 902 712 664
410 3 890 902 712 702
411 3 923 902 712 664
412 3 923 902 712 702
413 3 890 902 923 875
414 3 890 902 923 913
415 3 712 902 923 875
416 3 712 902 923 913
417 3 1281 1329 1342 1294
418 3 1281 1329 1342 1535
419 3 1423 1329 1342 1294
420 3 1423 1329 1342 1535
421 1 1579 1523 1535 1659
422 1 1579 1523 1535 1342
423 1 1580 1523 1535 1659
424 1 1580 1523 1535 1342
425 2 1535 1523 1579 1489
426 2 1580 1523 1579 1489
427 2 1535 1523 1580 1490
428 2 1579 1523 1580 1490
429 1 1585 1526 1538 1559
430 1 1585 1526 1538 1348
431 1 1586 1526 1538 1559
432 1 1586 1526 1538 1348
433 2 1538 1526 1585 1491
434 2 1586 1526 1585 1491
435 2 1538 1526 1586 1490
436 2 1585 1526 1586 1490
437 1 1587 1527 1539 1349
438 1 1587 1527 1539 926
439 1 1588 1527 1539 1349
440 1 1588 1527 1539 926
441 2 1539 1527 1587 1490
442 2 1588 1527 1587 1490
443 2 1539 1527 1588 1492
444 2 1587 1527 1588 1492
445 3 1523 1535 1342 1294
446 3 1523 1535 1342 1329
447 3 1659 1535 1342 1294
448 3 1659 1535 1342 1329
449 3 1523 1535 1659 1611
450 3 1523 1535 1659 1648
451 3 1342 1535 1659 1611
452 3 1342 1535 1659 1648
453 3 1527 1539 926 878
454 3 1527 1539 926 912
455 3 1349 1539 926 878
456 3 1349 1539 926 912
457 3 1527 1539 1349 1301
458 3 1527 1539 1349 1335
459 3 926 1539 1349 1301
460 3 926 1539 1349 1335
461 3 1526 1538 1348 1300
462 3 1526 1538 1348 1338
463 3 1559 1538 1348 1300
464 3 1559 1538 1348 1338
465 3 1526 1538 1559 1511
466 3 1526 1538 1559 1549
467 3 1348 1538 1559 1511
468 3 1348 1538 1559 1549
469 1 309 252 264 283
470 1 309 252 264 1556
471 1 310 252 264 283
472 1 310 252 264 1556
473 2 264 252 309 219
474 2 310 252 309 219
475 2 264 252 310 220
476 2 309 252 310 220
477 1 311 253 265 1557
478 1 311 253 265 392
479 1 312 253 265 1557
480 1 312 253 265 392
481 2 265 253 311 220
482 2 312 253 311 220
483 2 265 253 312 217
484 2 311 253 312 217
485 1 317 256 268 291
486 1 317 256 268 398
487 1 318 256 268 291
488 1 318 256 268 398
489 2 268 256 317 219
490 2 318 256 317 219
491 2 268 256 318 217
492 2 317 256 318 217
493 3 252 264 283 235
494 3 252 264 283 271
495 3 1556 264 283 235
496 3 1556 264 283 271
497 3 252 264 1556 1508
498 3 252 264 1556 1544
499 3 283 264 1556 1508
500 3 283 264 1556 1544
501 3 253 265 392 344
502 3 253 265 392 385
503 3 1557 265 392 344
504 3 1557 265 392 385
505 3 253 265 1557 1509
506 3 253 265 1557 1552
507 3 392 265 1557 1509
508 3 392 265 1557 1552
509 3 256 268 291 243
510 3 256 268 291 274
511 3 398 268 291 243
512 3 398 268 291 274
513 3 256 268 398 350
514 3 256 268 398 379
515 3 291 268 398 350
516 3 291 268 398 379
517 3 226 274 291 243
518 3 226 274 291 268
519 3 365 274 291 243
520 3 365 274 291 268
521 3 232 280 285 237
522 3 232 280 285 901
523 3 368 280 285 237
524 3 368 280 285 901
525 1 947 889 901 285
526 1 947 889 901 1028
527 1 948 889 901 285
528 1 948 889 901 1028
529 2 901 889 947 856
530 2 948 889 947 856
531 2 901 889 948 853
532 2 947 889 948 853
533 3 889 901 285 237
534 3 889 901 285 280
535 3 1028 901 285 237
536 3 1028 901 285 280
537 3 889 901 1028 980
538 3 889 901 1028 1021
539 3 285 901 1028 980
540 3 285 901 1028 1021
541 1 945 888 900 919
542 1 945 888 900 284
543 1 946 888 900 919
544 1 946 888 900 284
545 2 900 888 945 855
546 2 946 888 945 855
547 2 900 888 946 856
548 2 945 888 946 856
549 1 953 892 904 927
550 1 953 892 904 1034
551 1 954 892 904 927
552 1 954 892 904 1034
553 2 904 892 953 855
554 2 954 892 953 855
555 2 904 892 954 853
556 2 953 892 954 853
557 3 888 900 284 236
558 3 888 900 284 272
559 3 919 900 284 236
560 3 919 900 284 272
561 3 888 900 919 871
562 3 888 900 919 907
563 3 284 900 919 871
564 3 284 900 919 907
565 3 892 904 927 879
566 3 892 904 927 910
567 3 1034 904 927 879
568 3 1034 904 927 910
569 3 892 904 1034 986
570 3 892 904 1034 1015
571 3 927 904 1034 986
572 3 927 904 1034 1015
573 3 862 910 927 879
574 3 862 910 927 904
575 3 1001 910 927 879
576 3 1001 910 927 904
577 3 868 916 921 873
578 3 868 916 921 1537
579 3 1004 916 921 873
580 3 1004 916 921 1537
581 1 1581 1524 1536 1555
582 1 1581 1524 1536 920
583 1 1582 1524 1536 1555
584 1 1582 1524 1536 920
585 2 1536 1524 1581 1491
586 2 1582 1524 1581 1491
587 2 1536 1524 1582 1492
588 2 1581 1524 1582 1492
589 1 1583 1525 1537 921
590 1 1583 1525 1537 1664
591 1 1584 1525 1537 921
592 1 1584 1525 1537 1664
593 2 1537 1525 1583 1492
594 2 1584 1525 1583 1492
595 2 1537 1525 1584 1489
596 2 1583 1525 1584 1489
597 1 1589 1528 1540 1563
598 1 1589 1528 1540 1670
599 1 1590 1528 1540 1563
600 1 1590 1528 1540 1670
601 2 1540 1528 1589 1491
602 2 1590 1528 1589 1491
603 2 1540 1528 1590 1489
604 2 1589 1528 1590 1489
605 3 1524 1536 920 872
606 3 1524 1536 920 908
607 3 1555 1536 920 872
608 3 1555 1536 920 908
609 3 1524 1536 1555 1507
610 3 1524 1536 1555 1543
611 3 920 1536 1555 1507
612 3 920 1536 1555 1543
613 3 1525 1537 921 873
614 3 1525 1537 921 916
615 3 1664 1537 921 873
616 3 1664 1537 921 916
617 3 1525 1537 1664 1616
618 3 1525 1537 1664 1657
619 3 921 1537 1664 1616
620 3 921 1537 1664 1657
621 3 1528 1540 1563 1515
622 3 1528 1540 1563 1546
623 3 1670 1540 1563 1515
624 3 1670 1540 1563 1546
625 3 1528 1540 1670 1622
626 3 1528 1540 1670 1651
627 3 1563 1540 1670 1622
628 3 1563 1540 1670 1651
629 3 1498 1546 1563 1515
630 3 1498 1546 1563 1540
631 3 1637 1546 1563 1515
632 3 1637 1546 1563 1540
633 3 1504 1552 1557 1509
634 3 1504 1552 1557 265
635 3 1640 1552 1557 1509
636 3 1640 1552 1557 265
637 3 221 269 282 234
638 3 221 269 282 475
639 3 363 269 282 234
640 3 363 269 282 475
641 1 519 463 475 599
642 1 519 463 475 282
643 1 520 463 475 599
644 1 520 463 475 282
645 2 475 463 519 429
646 2 520 463 519 429
647 2 475 463 520 430
648 2 519 463 520 430
649 1 527 467 479 289
650 1 527 467 479 1774
651 1 528 467 479 289
652 1 528 467 479 1774
653 2 479 467 527 430
654 2 528 467 527 430
655 2 479 467 528 432
656 2 527 467 528 432
657 3 463 475 282 234
658 3 463 475 282 269
659 3 599 475 282 234
660 3 599 475 282 269
661 3 463 475 599 551
662 3 463 475 599 588
663 3 282 475 599 551
664 3 282 475 599 588
665 3 467 479 289 241
666 3 467 479 289 275
667 3 1774 479 289 241
668 3 1774 479 289 275
669 3 467 479 1774 1726
670 3 467 479 1774 1760
671 3 289 479 1774 1726
672 3 289 479 1774 1760
673 1 525 466 478 499
674 1 525 466 478 288
675 1 526 466 478 499
676 1 526 466 478 288
677 2 478 466 525 431
678 2 526 466 525 431
679 2 478 466 526 430
680 2 525 466 526 430
681 3 466 478 288 240
682 3 466 478 288 278
683 3 499 478 288 240
684 3 499 478 288 278
685 3 466 478 499 451
686 3 466 478 499 489
687 3 288 478 499 451
688 3 288 478 499 489
689 3 1103 1115 502 454
690 3 1103 1115 502 488
691 3 925 1115 502 454
692 3 925 1115 502 488
693 3 1103 1115 925 877
694 3 1103 1115 925 911
695 3 502 1115 925 877
696 3 502 1115 925 911
697 3 857 905 918 870
698 3 857 905 918 1111
699 3 999 905 918 870
700 3 999 905 918 1111
701 1 1155 1099 1111 1235
702 1 1155 1099 1111 918
703 1 1156 1099 1111 1235
704 1 1156 1099 1111 918
705 2 1111 1099 1155 1065
706 2 1156 1099 1155 1065
707 2 1111 1099 1156 1066
708 2 1155 1099 1156 1066
709 1 1161 1102 1114 1135
710 1 1161 1102 1114 924
711 1 1162 1102 1114 1135
712 1 1162 1102 1114 924
713 2 1114 1102 1161 1067
714 2 1162 1102 1161 1067
715 2 1114 1102 1162 1066
716 2 1161 1102 1162 1066
717 1 1163 1103 1115 925
718 1 1163 1103 1115 502
719 1 1164 1103 1115 925
720 1 1164 1103 1115 502
721 2 1115 1103 1163 1066
722 2 1164 1103 1163 1066
723 2 1115 1103 1164 1068
724 2 1163 1103 1164 1068
725 3 1099 1111 918 870
726 3 1099 1111 918 905
727 3 1235 1111 918 870
728 3 1235 1111 918 905
729 3 1099 1111 1235 1187
730 3 1099 1111 1235 1224
731 3 918 1111 1235 1187
732 3 918 1111 1235 1224
733 3 1102 1114 924 876
734 3 1102 1114 924 914
735 3 1135 1114 924 876
736 3 1135 1114 924 914
737 3 1102 1114 1135 1087
738 3 1102 1114 1135 1125
739 3 924 1114 1135 1087
740 3 924 1114 1135 1125
741 3 1493 1541 1554 1506
742 3 1493 1541 1554 1747
743 3 1635 1541 1554 1506
744 3 1635 1541 1554 1747
745 1 1791 1735 1747 1871
746 1 1791 1735 1747 1554
747 1 1792 1735 1747 1871
748 1 1792 1735 1747 1554
749 2 1747 1735 1791 1701
750 2 1792 1735 1791 1701
751 2 1747 1735 1792 1702
752 2 1791 1735 1792 1702
753 1 1799 1739 1751 1561
754 1 1799 1739 1751 1138
755 1 1800 1739 1751 1561
756 1 1800 1739 1751 1138
757 2 1751 1739 1799 1702
758 2 1800 1739 1799 1702
759 2 1751 1739 1800 1704
760 2 1799 1739 1800 1704
761 3 1735 1747 1554 1506
762 3 1735 1747 1554 1541
763 3 1871 1747 1554 1506
764 3 1871 1747 1554 1541
765 3 1735 1747 1871 1823
766 3 1735 1747 1871 1860
767 3 1554 1747 1871 1823
768 3 1554 1747 1871 1860
769 3 1739 1751 1138 1090
770 3 1739 1751 1138 1124
771 3 1561 1751 1138 1090
772 3 1561 1751 1138 1124
773 3 1739 1751 1561 1513
774 3 1739 1751 1561 1547
775 3 1138 1751 1561 1513
776 3 1138 1751 1561 1547
777 1 1797 1738 1750 1771
778 1 1797 1738 1750 1560
779 1 1798 1738 1750 1771
780 1 1798 1738 1750 1560
781 2 1750 1738 1797 1703
782 2 1798 1738 1797 1703
783 2 1750 1738 1798 1702
784 2 1797 1738 1798 1702
785 3 1738 1750 1560 1512
786 3 1738 1750 1560 1550
787 3 1771 1750 1560 1512
788 3 1771 1750 1560 1550
789 3 1738 1750 1771 1723
790 3 1738 1750 1771 1761
791 3 1560 1750 1771 1723
792 3 1560 1750 1771 1761
793 1 521 464 476 495
794 1 521 464 476 1768
795 1 522 464 476 495
796 1 522 464 476 1768
797 2 476 464 521 431
798 2 522 464 521 431
799 2 476 464 522 432
800 2 521 464 522 432
801 1 523 465 477 1769
802 1 523 465 477 604
803 1 524 465 477 1769
804 1 524 465 477 604
805 2 477 465 523 432
806 2 524 465 523 432
807 2 477 465 524 429
808 2 523 465 524 429
809 3 464 476 495 447
810 3 464 476 495 483
811 3 1768 476 495 447
812 3 1768 476 495 483
813 3 464 476 1768 1720
814 3 464 476 1768 1756
815 3 495 476 1768 1720
816 3 495 476 1768 1756
817 3 465 477 604 556
818 3 465 477 604 597
819 3 1769 477 604 556
820 3 1769 477 604 597
821 3 465 477 1769 1721
822 3 465 477 1769 1764
823 3 604 477 1769 1721
824 3 604 477 1769 1764
825 1 529 468 480 503
826 1 529 468 480 610
827 1 530 468 480 503
828 1 530 468 480 610
829 2 480 468 529 431
830 2 530 468 529 431
831 2 480 468 530 429
832 2 529 468 530 429
833 3 468 480 503 455
834 3 468 480 503 486
835 3 610 480 503 455
836 3 610 480 503 486
837 3 468 480 610 562
838 3 468 480 610 591
839 3 503 480 610 562
840 3 503 480 610 591
841 3 438 486 503 455
842 3 438 486 503 480
843 3 577 486 503 455
844 3 577 486 503 480
845 3 444 492 497 449
846 3 444 492 497 1113
847 3 580 492 497 449
848 3 580 492 497 1113
849 3 1101 1113 497 449
850 3 1101 1113 497 492
851 3 1240 1113 497 449
852 3 1240 1113 497 492
853 3 1101 1113 1240 1192
854 3 1101 1113 1240 1233
855 3 497 1113 1240 1192
856 3 497 1113 1240 1233
857 1 1157 1100 1112 1131
858 1 1157 1100 1112 496
859 1 1158 1100 1112 1131
860 1 1158 1100 1112 496
861 2 1112 1100 1157 1067
862 2 1158 1100 1157 1067
863 2 1112 1100 1158 1068
864 2 1157 1100 1158 1068
865 1 1159 1101 1113 497
866 1 1159 1101 1113 1240
867 1 1160 1101 1113 497
868 1 1160 1101 1113 1240
869 2 1113 1101 1159 1068
870 2 1160 1101 1159 1068
871 2 1113 1101 1160 1065
872 2 1159 1101 1160 1065
873 1 1165 1104 1116 1139
874 1 1165 1104 1116 1246
875 1 1166 1104 1116 1139
876 1 1166 1104 1116 1246
877 2 1116 1104 1165 1067
878 2 1166 1104 1165 1067
879 2 1116 1104 1166 1065
880 2 1165 1104 1166 1065
881 3 1100 1112 496 448
882 3 1100 1112 496 484
883 3 1131 1112 496 448
884 3 1131 1112 496 484
885 3 1100 1112 1131 1083
886 3 1100 1112 1131 1119
887 3 496 1112 1131 1083
888 3 496 1112 1131 1119
889 3 1104 1116 1139 1091
890 3 1104 1116 1139 1122
891 3 1246 1116 1139 1091
892 3 1246 1116 1139 1122
893 3 1104 1116 1246 1198
894 3 1104 1116 1246 1227
895 3 1139 1116 1246 1198
896 3 1139 1116 1246 1227
897 3 1074 1122 1139 1091
898 3 1074 1122 1139 1116
899 3 1213 1122 1139 1091
900 3 1213 1122 1139 1116
901 3 1080 1128 1133 1085
902 3 1080 1128 1133 1749
903 3 1216 1128 1133 1085
904 3 1216 1128 1133 1749
905 1 1793 1736 1748 1767
906 1 1793 1736 1748 1132
907 1 1794 1736 1748 1767
908 1 1794 1736 1748 1132
909 2 1748 1736 1793 1703
910 2 1794 1736 1793 1703
911 2 1748 1736 1794 1704
912 2 1793 1736 1794 1704
913 1 1795 1737 1749 1133
914 1 1795 1737 1749 1876
915 1 1796 1737 1749 1133
916 1 1796 1737 1749 1876
917 2 1749 1737 1795 1704
918 2 1796 1737 1795 1704
919 2 1749 1737 1796 1701
920 2 1795 1737 1796 1701
921 3 1736 1748 1132 1084
922 3 1736 1748 1132 1120
923 3 1767 1748 1132 1084
924 3 1767 1748 1132 1120
925 3 1736 1748 1767 1719
926 3 1736 1748 1767 1755
927 3 1132 1748 1767 1719
928 3 1132 1748 1767 1755
929 3 1737 1749 1133 1085
930 3 1737 1749 1133 1128
931 3 1876 1749 1133 1085
932 3 1876 1749 1133 1128
933 3 1737 1749 1876 1828
934 3 1737 1749 1876 1869
935 3 1133 1749 1876 1828
936 3 1133 1749 1876 1869
937 1 1801 1740 1752 1775
938 1 1801 1740 1752 1882
939 1 1802 1740 1752 1775
940 1 1802 1740 1752 1882
941 2 1752 1740 1801 1703
942 2 1802 1740 1801 1703
943 2 1752 1740 1802 1701
944 2 1801 1740 1802 1701
945 3 1740 1752 1775 1727
946 3 1740 1752 1775 1758
947 3 1882 1752 1775 1727
948 3 1882 1752 1775 1758
949 3 1740 1752 1882 1834
950 3 1740 1752 1882 1863
951 3 1775 1752 1882 1834
952 3 1775 1752 1882 1863
953 3 1710 1758 1775 1727
954 3 1710 1758 1775 1752
955 3 1849 1758 1775 1727
956 3 1849 1758 1775 1752
957 3 1716 1764 1769 1721
958 3 1716 1764 1769 477
959 3 1852 1764 1769 1721
960 3 1852 1764 1769 477
961 3 433 481 494 446
962 3 433 481 494 51
963 3 575 481 494 446
964 3 575 481 494 51
965 3 1069 1117 1130 1082
966 3 1069 1117 1130 687
967 3 1211 1117 1130 1082
968 3 1211 1117 1130 687
969 3 1705 1753 1766 1718
970 3 1705 1753 1766 1323
971 3 1847 1753 1766 1718
972 3 1847 1753 1766 1323
973 3 10 58 69 21
974 3 10 58 69 157
975 3 469 58 69 21
976 3 469 58 69 157
977 3 17 65 75 27
978 3 17 65 75 54
979 3 473 65 75 27
980 3 473 65 75 54
981 3 16 64 78 30
982 3 16 64 78 691
983 3 472 64 78 30
984 3 472 64 78 691
985 3 653 701 711 663
986 3 653 701 711 690
987 3 1109 701 711 663
988 3 1109 701 711 690
989 3 646 694 705 657
990 3 646 694 705 793
991 3 1105 694 705 657
992 3 1105 694 705 793
993 3 652 700 714 666
994 3 652 700 714 1327
995 3 1108 700 714 666
996 3 1108 700 714 1327
997 3 1282 1330 1341 1293
998 3 1282 1330 1341 1429
999 3 1741 1330 1341 1293
1000 3 1741 1330 1341 1429
1001 3 1289 1337 1347 1299
1002 3 1289 1337 1347 1326
1003 3 1745 1337 1347 1299
1004 3 1745 1337 1347 1326
1005 3 1288 1336 1350 1302
1006 3 1288 1336 1350 55
1007 3 1744 1336 1350 1302
1008 3 1744 1336 1350 55
1009 3 11 59 71 23
1010 3 11 59 71 52
1011 3 1318 59 71 23
1012 3 1318 59 71 52
1013 3 19 67 74 26
1014 3 19 67 74 159
1015 3 1322 67 74 26
1016 3 1322 67 74 159
1017 1 85 34 46 695
1018 1 85 34 46 60
1019 1 86 34 46 695
1020 1 86 34 46 60
1021 2 46 34 85 3
1022 2 86 34 85 3
1023 2 46 34 86 4
1024 2 85 34 86 4
1025 1 87 35 47 61
1026 1 87 35 47 168
1027 1 88 35 47 61
1028 1 88 35 47 168
1029 2 47 35 87 4
1030 2 88 35 87 4
1031 2 47 35 88 1
1032 2 87 35 88 1
1033 3 34 46 60 12
1034 3 34 46 60 72
1035 3 695 46 60 12
1036 3 695 46 60 72
1037 3 34 46 695 647
1038 3 34 46 695 707
1039 3 60 46 695 647
1040 3 60 46 695 707
1041 3 35 47 61 13
1042 3 35 47 61 80
1043 3 168 47 61 13
1044 3 168 47 61 80
1045 3 35 47 168 120
1046 3 35 47 168 185
1047 3 61 47 168 120
1048 3 61 47 168 185
1049 3 12 60 72 24
1050 3 12 60 72 688
1051 3 46 60 72 24
1052 3 46 60 72 688
1053 3 13 61 80 32
1054 3 13 61 80 162
1055 3 47 61 80 32
1056 3 47 61 80 162
1057 3 647 695 707 659
1058 3 647 695 707 688
1059 3 46 695 707 659
1060 3 46 695 707 688
1061 1 93 38 50 703
1062 1 93 38 50 174
1063 1 94 38 50 703
1064 1 94 38 50 174
1065 2 50 38 93 3
1066 2 94 38 93 3
1067 2 50 38 94 1
1068 2 93 38 94 1
1069 3 38 50 174 126
1070 3 38 50 174 179
1071 3 703 50 174 126
1072 3 703 50 174 179
1073 3 38 50 703 655
1074 3 38 50 703 710
1075 3 174 50 703 655
1076 3 174 50 703 710
1077 3 655 703 710 662
1078 3 655 703 710 795
1079 3 50 703 710 662
1080 3 50 703 710 795
1081 3 671 683 697 649
1082 3 671 683 697 716
1083 3 804 683 697 649
1084 3 804 683 697 716
1085 3 671 683 804 756
1086 3 671 683 804 821
1087 3 697 683 804 756
1088 3 697 683 804 821
1089 3 649 697 716 668
1090 3 649 697 716 798
1091 3 683 697 716 668
1092 3 683 697 716 798
1093 1 721 670 682 1331
1094 1 721 670 682 696
1095 1 722 670 682 1331
1096 1 722 670 682 696
1097 2 682 670 721 639
1098 2 722 670 721 639
1099 2 682 670 722 640
1100 2 721 670 722 640
1101 1 723 671 683 697
1102 1 723 671 683 804
1103 1 724 671 683 697
1104 1 724 671 683 804
1105 2 683 671 723 640
1106 2 724 671 723 640
1107 2 683 671 724 637
1108 2 723 671 724 637
1109 1 729 674 686 1339
1110 1 729 674 686 810
1111 1 730 674 686 1339
1112 1 730 674 686 810
1113 2 686 674 729 639
1114 2 730 674 729 639
1115 2 686 674 730 637
1116 2 729 674 730 637
1117 3 670 682 696 648
1118 3 670 682 696 708
1119 3 1331 682 696 648
1120 3 1331 682 696 708
1121 3 670 682 1331 1283
1122 3 670 682 1331 1343
1123 3 696 682 1331 1283
1124 3 696 682 1331 1343
1125 3 674 686 810 762
1126 3 674 686 810 815
1127 3 1339 686 810 762
1128 3 1339 686 810 815
1129 3 674 686 1339 1291
1130 3 674 686 1339 1346
1131 3 810 686 1339 1291
1132 3 810 686 1339 1346
1133 3 648 696 708 660
1134 3 648 696 708 1324
1135 3 682 696 708 660
1136 3 682 696 708 1324
1137 3 1283 1331 1343 1295
1138 3 1283 1331 1343 1324
1139 3 682 1331 1343 1295
1140 3 682 1331 1343 1324
1141 3 1291 1339 1346 1298
1142 3 1291 1339 1346 1431
1143 3 686 1339 1346 1298
1144 3 686 1339 1346 1431
1145 1 1357 1306 1318 59
1146 1 1357 1306 1318 1332
1147 1 1358 1306 1318 59
1148 1 1358 1306 1318 1332
1149 2 1318 1306 1357 1275
1150 2 1358 1306 1357 1275
1151 2 1318 1306 1358 1276
1152 2 1357 1306 1358 1276
1153 1 1359 1307 1319 1333
1154 1 1359 1307 1319 1440
1155 1 1360 1307 1319 1333
1156 1 1360 1307 1319 1440
1157 2 1319 1307 1359 1276
1158 2 1360 1307 1359 1276
1159 2 1319 1307 1360 1273
1160 2 1359 1307 1360 1273
1161 3 1306 1318 59 11
1162 3 1306 1318 59 71
1163 3 1332 1318 59 11
1164 3 1332 1318 59 71
1165 3 1306 1318 1332 1284
1166 3 1306 1318 1332 1344
1167 3 59 1318 1332 1284
1168 3 59 1318 1332 1344
1169 3 1307 1319 1333 1285
1170 3 1307 1319 1333 1352
1171 3 1440 1319 1333 1285
1172 3 1440 1319 1333 1352
1173 3 1307 1319 1440 1392
1174 3 1307 1319 1440 1457
1175 3 1333 1319 1440 1392
1176 3 1333 1319 1440 1457
1177 3 1284 1332 1344 1296
1178 3 1284 1332 1344 52
1179 3 1318 1332 1344 1296
1180 3 1318 1332 1344 52
1181 3 1285 1333 1352 1304
1182 3 1285 1333 1352 1434
1183 3 1319 1333 1352 1304
1184 3 1319 1333 1352 1434
1185 1 1365 1310 1322 67
1186 1 1365 1310 1322 1446
1187 1 1366 1310 1322 67
1188 1 1366 1310 1322 1446
1189 2 1322 1310 1365 1275
1190 2 1366 1310 1365 1275
1191 2 1322 1310 1366 1273
1192 2 1365 1310 1366 1273
1193 3 1310 1322 67 19
1194 3 1310 1322 67 74
1195 3 1446 1322 67 19
1196 3 1446 1322 67 74
1197 3 1310 1322 1446 1398
1198 3 1310 1322 1446 1451
1199 3 67 1322 1446 1398
1200 3 67 1322 1446 1451
1201 3 15 63 77 29
1202 3 15 63 77 267
1203 3 1320 63 77 29
1204 3 1320 63 77 267
1205 1 83 33 45 163
1206 1 83 33 45 270
1207 1 84 33 45 163
1208 1 84 33 45 270
1209 2 45 33 83 1
1210 2 84 33 83 1
1211 2 45 33 84 2
1212 2 83 33 84 2
1213 1 91 37 49 277
1214 1 91 37 49 66
1215 1 92 37 49 277
1216 1 92 37 49 66
1217 2 49 37 91 2
1218 2 92 37 91 2
1219 2 49 37 92 4
1220 2 91 37 92 4
1221 3 33 45 163 115
1222 3 33 45 163 176
1223 3 270 45 163 115
1224 3 270 45 163 176
1225 3 33 45 270 222
1226 3 33 45 270 281
1227 3 163 45 270 222
1228 3 163 45 270 281
1229 3 37 49 66 18
1230 3 37 49 66 76
1231 3 277 49 66 18
1232 3 277 49 66 76
1233 3 37 49 277 229
1234 3 37 49 277 287
1235 3 66 49 277 229
1236 3 66 49 277 287
1237 3 18 66 76 28
1238 3 18 66 76 266
1239 3 49 66 76 28
1240 3 49 66 76 266
1241 3 222 270 281 233
1242 3 222 270 281 369
1243 3 45 270 281 233
1244 3 45 270 281 369
1245 3 229 277 287 239
1246 3 229 277 287 266
1247 3 49 277 287 239
1248 3 49 277 287 266
1249 1 89 36 48 699
1250 1 89 36 48 276
1251 1 90 36 48 699
1252 1 90 36 48 276
1253 2 48 36 89 3
1254 2 90 36 89 3
1255 2 48 36 90 2
1256 2 89 36 90 2
1257 3 36 48 276 228
1258 3 36 48 276 290
1259 3 699 48 276 228
1260 3 699 48 276 290
1261 3 36 48 699 651
1262 3 36 48 699 713
1263 3 276 48 699 651
1264 3 276 48 699 713
1265 3 228 276 290 242
1266 3 228 276 290 903
1267 3 48 276 290 242
1268 3 48 276 290 903
1269 3 651 699 713 665
1270 3 651 699 713 903
1271 3 48 699 713 665
1272 3 48 699 713 903
1273 3 673 685 702 654
1274 3 673 685 702 712
1275 3 913 685 702 654
1276 3 913 685 702 712
1277 3 673 685 913 865
1278 3 673 685 913 923
1279 3 702 685 913 865
1280 3 702 685 913 923
1281 3 654 702 712 664
1282 3 654 702 712 902
1283 3 685 702 712 664
1284 3 685 702 712 902
1285 3 865 913 923 875
1286 3 865 913 923 902
1287 3 685 913 923 875
1288 3 685 913 923 902
1289 1 719 669 681 799
1290 1 719 669 681 906
1291 1 720 669 681 799
1292 1 720 669 681 906
1293 2 681 669 719 637
1294 2 720 669 719 637
1295 2 681 669 720 638
1296 2 719 669 720 638
1297 1 725 672 684 1335
1298 1 725 672 684 912
1299 1 726 672 684 1335
1300 1 726 672 684 912
1301 2 684 672 725 639
1302 2 726 672 725 639
1303 2 684 672 726 638
1304 2 725 672 726 638
1305 1 727 673 685 913
1306 1 727 673 685 702
1307 1 728 673 685 913
1308 1 728 673 685 702
1309 2 685 673 727 638
1310 2 728 673 727 638
1311 2 685 673 728 640
1312 2 727 673 728 640
1313 3 669 681 799 751
1314 3 669 681 799 812
1315 3 906 681 799 751
1316 3 906 681 799 812
1317 3 669 681 906 858
1318 3 669 681 906 917
1319 3 799 681 906 858
1320 3 799 681 906 917
1321 3 672 684 912 864
1322 3 672 684 912 926
1323 3 1335 684 912 864
1324 3 1335 684 912 926
1325 3 672 684 1335 1287
1326 3 672 684 1335 1349
1327 3 912 684 1335 1287
1328 3 912 684 1335 1349
1329 3 858 906 917 869
1330 3 858 906 917 1005
1331 3 681 906 917 869
1332 3 681 906 917 1005
1333 3 864 912 926 878
1334 3 864 912 926 1539
1335 3 684 912 926 878
1336 3 684 912 926 1539
1337 3 1287 1335 1349 1301
1338 3 1287 1335 1349 1539
1339 3 684 1335 1349 1301
1340 3 684 1335 1349 1539
1341 1 1355 1305 1317 1435
1342 1 1355 1305 1317 1542
1343 1 1356 1305 1317 1435
1344 1 1356 1305 1317 1542
1345 2 1317 1305 1355 1273
1346 2 1356 1305 1355 1273
1347 2 1317 1305 1356 1274
1348 2 1355 1305 1356 1274
1349 1 1363 1309 1321 1549
1350 1 1363 1309 1321 1338
1351 1 1364 1309 1321 1549
1352 1 1364 1309 1321 1338
1353 2 1321 1309 1363 1274
1354 2 1364 1309 1363 1274
1355 2 1321 1309 1364 1276
1356 2 1363 1309 1364 1276
1357 3 1305 1317 1435 1387
1358 3 1305 1317 1435 1448
1359 3 1542 1317 1435 1387
1360 3 1542 1317 1435 1448
1361 3 1305 1317 1542 1494
1362 3 1305 1317 1542 1553
1363 3 1435 1317 1542 1494
1364 3 1435 1317 1542 1553
1365 3 1309 1321 1338 1290
1366 3 1309 1321 1338 1348
1367 3 1549 1321 1338 1290
1368 3 1549 1321 1338 1348
1369 3 1309 1321 1549 1501
1370 3 1309 1321 1549 1559
1371 3 1338 1321 1549 1501
1372 3 1338 1321 1549 1559
1373 3 1290 1338 1348 1300
1374 3 1290 1338 1348 1538
1375 3 1321 1338 1348 1300
1376 3 1321 1338 1348 1538
1377 3 1494 1542 1553 1505
1378 3 1494 1542 1553 1641
1379 3 1317 1542 1553 1505
1380 3 1317 1542 1553 1641
1381 3 1501 1549 1559 1511
1382 3 1501 1549 1559 1538
1383 3 1321 1549 1559 1511
1384 3 1321 1549 1559 1538
1385 1 1361 1308 1320 63
1386 1 1361 1308 1320 1548
1387 1 1362 1308 1320 63
1388 1 1362 1308 1320 1548
1389 2 1320 1308 1361 1275
1390 2 1362 1308 1361 1275
1391 2 1320 1308 1362 1274
1392 2 1361 1308 1362 1274
1393 3 1308 1320 63 15
1394 3 1308 1320 63 77
1395 3 1548 1320 63 15
1396 3 1548 1320 63 77
1397 3 1308 1320 1548 1500
1398 3 1308 1320 1548 1562
1399 3 63 1320 1548 1500
1400 3 63 1320 1548 1562
1401 3 1500 1548 1562 1514
1402 3 1500 1548 1562 267
1403 3 1320 1548 1562 1514
1404 3 1320 1548 1562 267
1405 3 223 271 283 235
1406 3 223 271 283 264
1407 3 1530 271 283 235
1408 3 1530 271 283 264
1409 3 231 279 286 238
1410 3 231 279 286 371
1411 3 1534 279 286 238
1412 3 1534 279 286 371
1413 3 224 272 284 236
1414 3 224 272 284 900
1415 3 258 272 284 236
1416 3 258 272 284 900
1417 3 225 273 292 244
1418 3 225 273 292 374
1419 3 259 273 292 244
1420 3 259 273 292 374
1421 1 297 246 258 907
1422 1 297 246 258 272
1423 1 298 246 258 907
1424 1 298 246 258 272
1425 2 258 246 297 215
1426 2 298 246 297 215
1427 2 258 246 298 216
1428 2 297 246 298 216
1429 3 246 258 272 224
1430 3 246 258 272 284
1431 3 907 258 272 224
1432 3 907 258 272 284
1433 3 246 258 907 859
1434 3 246 258 907 919
1435 3 272 258 907 859
1436 3 272 258 907 919
1437 3 859 907 919 871
1438 3 859 907 919 900
1439 3 258 907 919 871
1440 3 258 907 919 900
1441 3 867 915 922 874
1442 3 867 915 922 1007
1443 3 262 915 922 874
1444 3 262 915 922 1007
1445 3 861 909 928 880
1446 3 861 909 928 1010
1447 3 895 909 928 880
1448 3 895 909 928 1010
1449 1 933 882 894 1543
1450 1 933 882 894 908
1451 1 934 882 894 1543
1452 1 934 882 894 908
1453 2 894 882 933 851
1454 2 934 882 933 851
1455 2 894 882 934 852
1456 2 933 882 934 852
1457 3 882 894 908 860
1458 3 882 894 908 920
1459 3 1543 894 908 860
1460 3 1543 894 908 920
1461 3 882 894 1543 1495
1462 3 882 894 1543 1555
1463 3 908 894 1543 1495
1464 3 908 894 1543 1555
1465 3 860 908 920 872
1466 3 860 908 920 1536
1467 3 894 908 920 872
1468 3 894 908 920 1536
1469 3 1495 1543 1555 1507
1470 3 1495 1543 1555 1536
1471 3 894 1543 1555 1507
1472 3 894 1543 1555 1536
1473 3 1503 1551 1558 1510
1474 3 1503 1551 1558 1643
1475 3 898 1551 1558 1510
1476 3 898 1551 1558 1643
1477 3 1497 1545 1564 1516
1478 3 1497 1545 1564 1646
1479 3 1531 1545 1564 1516
1480 3 1531 1545 1564 1646
1481 1 1569 1518 1530 271
1482 1 1569 1518 1530 1544
1483 1 1570 1518 1530 271
1484 1 1570 1518 1530 1544
1485 2 1530 1518 1569 1487
1486 2 1570 1518 1569 1487
1487 2 1530 1518 1570 1488
1488 2 1569 1518 1570 1488
1489 3 1518 1530 271 223
1490 3 1518 1530 271 283
1491 3 1544 1530 271 223
1492 3 1544 1530 271 283
1493 3 1518 1530 1544 1496
1494 3 1518 1530 1544 1556
1495 3 271 1530 1544 1496
1496 3 271 1530 1544 1556
1497 3 1496 1544 1556 1508
1498 3 1496 1544 1556 264
1499 3 1530 1544 1556 1508
1500 3 1530 1544 1556 264
1501 3 227 275 289 241
1502 3 227 275 289 479
1503 3 1532 275 289 241
1504 3 1532 275 289 479
1505 1 299 247 259 273
1506 1 299 247 259 380
1507 1 300 247 259 273
1508 1 300 247 259 380
1509 2 259 247 299 216
1510 2 300 247 299 216
1511 2 259 247 300 213
1512 2 299 247 300 213
1513 1 303 249 261 489
1514 1 303 249 261 278
1515 1 304 249 261 489
1516 1 304 249 261 278
1517 2 261 249 303 214
1518 2 304 249 303 214
1519 2 261 249 304 216
1520 2 303 249 304 216
1521 3 247 259 273 225
1522 3 247 259 273 292
1523 3 380 259 273 225
1524 3 380 259 273 292
1525 3 247 259 380 332
1526 3 247 259 380 397
1527 3 273 259 380 332
1528 3 273 259 380 397
1529 3 249 261 278 230
1530 3 249 261 278 288
1531 3 489 261 278 230
1532 3 489 261 278 288
1533 3 249 261 489 441
1534 3 249 261 489 499
1535 3 278 261 489 441
1536 3 278 261 489 499
1537 3 230 278 288 240
1538 3 230 278 288 478
1539 3 261 278 288 240
1540 3 261 278 288 478
1541 3 441 489 499 451
1542 3 441 489 499 478
1543 3 261 489 499 451
1544 3 261 489 499 478
1545 1 295 245 257 375
1546 1 295 245 257 482
1547 1 296 245 257 375
1548 1 296 245 257 482
1549 2 257 245 295 213
1550 2 296 245 295 213
1551 2 257 245 296 214
1552 2 295 245 296 214
1553 1 301 248 260 911
1554 1 301 248 260 488
1555 1 302 248 260 911
1556 1 302 248 260 488
1557 2 260 248 301 215
1558 2 302 248 301 215
1559 2 260 248 302 214
1560 2 301 248 302 214
1561 1 305 250 262 915
1562 1 305 250 262 386
1563 1 306 250 262 915
1564 1 306 250 262 386
1565 2 262 250 305 215
1566 2 306 250 305 215
1567 2 262 250 306 213
1568 2 305 250 306 213
1569 3 245 257 375 327
1570 3 245 257 375 388
1571 3 482 257 375 327
1572 3 482 257 375 388
1573 3 245 257 482 434
1574 3 245 257 482 493
1575 3 375 257 482 434
1576 3 375 257 482 493
1577 3 248 260 488 440
1578 3 248 260 488 502
1579 3 911 260 488 440
1580 3 911 260 488 502
1581 3 248 260 911 863
1582 3 248 260 911 925
1583 3 488 260 911 863
1584 3 488 260 911 925
1585 3 250 262 386 338
1586 3 250 262 386 391
1587 3 915 262 386 338
1588 3 915 262 386 391
1589 3 250 262 915 867
1590 3 250 262 915 922
1591 3 386 262 915 867
1592 3 386 262 915 922
1593 3 440 488 502 454
1594 3 440 488 502 1115
1595 3 260 488 502 454
1596 3 260 488 502 1115
1597 3 863 911 925 877
1598 3 863 911 925 1115
1599 3 260 911 925 877
1600 3 260 911 925 1115
1601 3 866 914 924 876
1602 3 866 914 924 1114
1603 3 897 914 924 876
1604 3 897 914 924 1114
1605 1 931 881 893 1011
1606 1 931 881 893 1118
1607 1 932 881 893 1011
1608 1 932 881 893 1118
1609 2 893 881 931 849
1610 2 932 881 931 849
1611 2 893 881 932 850
1612 2 931 881 932 850
1613 1 935 883 895 909
1614 1 935 883 895 1016
1615 1 936 883 895 909
1616 1 936 883 895 1016
1617 2 895 883 935 852
1618 2 936 883 935 852
1619 2 895 883 936 849
1620 2 935 883 936 849
1621 1 937 884 896 1547
1622 1 937 884 896 1124
1623 1 938 884 896 1547
1624 1 938 884 896 1124
1625 2 896 884 937 851
1626 2 938 884 937 851
1627 2 896 884 938 850
1628 2 937 884 938 850
1629 1 939 885 897 1125
1630 1 939 885 897 914
1631 1 940 885 897 1125
1632 1 940 885 897 914
1633 2 897 885 939 850
1634 2 940 885 939 850
1635 2 897 885 940 852
1636 2 939 885 940 852
1637 1 941 886 898 1551
1638 1 941 886 898 1022
1639 1 942 886 898 1551
1640 1 942 886 898 1022
1641 2 898 886 941 851
1642 2 942 886 941 851
1643 2 898 886 942 849
1644 2 941 886 942 849
1645 3 881 893 1011 963
1646 3 881 893 1011 1024
1647 3 1118 893 1011 963
1648 3 1118 893 1011 1024
1649 3 881 893 1118 1070
1650 3 881 893 1118 1129
1651 3 1011 893 1118 1070
1652 3 1011 893 1118 1129
1653 3 883 895 909 861
1654 3 883 895 909 928
1655 3 1016 895 909 861
1656 3 1016 895 909 928
1657 3 883 895 1016 968
1658 3 883 895 1016 1033
1659 3 909 895 1016 968
1660 3 909 895 1016 1033
1661 3 885 897 914 866
1662 3 885 897 914 924
1663 3 1125 897 914 866
1664 3 1125 897 914 924
1665 3 885 897 1125 1077
1666 3 885 897 1125 1135
1667 3 914 897 1125 1077
1668 3 914 897 1125 1135
1669 3 1077 1125 1135 1087
1670 3 1077 1125 1135 1114
1671 3 897 1125 1135 1087
1672 3 897 1125 1135 1114
1673 3 884 896 1124 1076
1674 3 884 896 1124 1138
1675 3 1547 896 1124 1076
1676 3 1547 896 1124 1138
1677 3 884 896 1547 1499
1678 3 884 896 1547 1561
1679 3 1124 896 1547 1499
1680 3 1124 896 1547 1561
1681 3 886 898 1022 974
1682 3 886 898 1022 1027
1683 3 1551 898 1022 974
1684 3 1551 898 1022 1027
1685 3 886 898 1551 1503
1686 3 886 898 1551 1558
1687 3 1022 898 1551 1503
1688 3 1022 898 1551 1558
1689 3 1076 1124 1138 1090
1690 3 1076 1124 1138 1751
1691 3 896 1124 1138 1090
1692 3 896 1124 1138 1751
1693 3 1499 1547 1561 1513
1694 3 1499 1547 1561 1751
1695 3 896 1547 1561 1513
1696 3 896 1547 1561 1751
1697 1 1571 1519 1531 1545
1698 1 1571 1519 1531 1652
1699 1 1572 1519 1531 1545
1700 1 1572 1519 1531 1652
1701 2 1531 1519 1571 1488
1702 2 1572 1519 1571 1488
1703 2 1531 1519 1572 1485
1704 2 1571 1519 1572 1485
1705 1 1575 1521 1533 1761
1706 1 1575 1521 1533 1550
1707 1 1576 1521 1533 1761
1708 1 1576 1521 1533 1550
1709 2 1533 1521 1575 1486
1710 2 1576 1521 1575 1486
1711 2 1533 1521 1576 1488
1712 2 1575 1521 1576 1488
1713 3 1519 1531 1545 1497
1714 3 1519 1531 1545 1564
1715 3 1652 1531 1545 1497
1716 3 1652 1531 1545 1564
1717 3 1519 1531 1652 1604
1718 3 1519 1531 1652 1669
1719 3 1545 1531 1652 1604
1720 3 1545 1531 1652 1669
1721 3 1521 1533 1550 1502
1722 3 1521 1533 1550 1560
1723 3 1761 1533 1550 1502
1724 3 1761 1533 1550 1560
1725 3 1521 1533 1761 1713
1726 3 1521 1533 1761 1771
1727 3 1550 1533 1761 1713
1728 3 1550 1533 1761 1771
1729 3 1502 1550 1560 1512
1730 3 1502 1550 1560 1750
1731 3 1533 1550 1560 1512
1732 3 1533 1550 1560 1750
1733 3 1713 1761 1771 1723
1734 3 1713 1761 1771 1750
1735 3 1533 1761 1771 1723
1736 3 1533 1761 1771 1750
1737 1 1567 1517 1529 1647
1738 1 1567 1517 1529 1754
1739 1 1568 1517 1529 1647
1740 1 1568 1517 1529 1754
1741 2 1529 1517 1567 1485
1742 2 1568 1517 1567 1485
1743 2 1529 1517 1568 1486
1744 2 1567 1517 1568 1486
1745 1 1573 1520 1532 275
1746 1 1573 1520 1532 1760
1747 1 1574 1520 1532 275
1748 1 1574 1520 1532 1760
1749 2 1532 1520 1573 1487
1750 2 1574 1520 1573 1487
1751 2 1532 1520 1574 1486
1752 2 1573 1520 1574 1486
1753 1 1577 1522 1534 279
1754 1 1577 1522 1534 1658
1755 1 1578 1522 1534 279
1756 1 1578 1522 1534 1658
1757 2 1534 1522 1577 1487
1758 2 1578 1522 1577 1487
1759 2 1534 1522 1578 1485
1760 2 1577 1522 1578 1485
1761 3 1517 1529 1647 1599
1762 3 1517 1529 1647 1660
1763 3 1754 1529 1647 1599
1764 3 1754 1529 1647 1660
1765 3 1517 1529 1754 1706
1766 3 1517 1529 1754 1765
1767 3 1647 1529 1754 1706
1768 3 1647 1529 1754 1765
1769 3 1520 1532 275 227
1770 3 1520 1532 275 289
1771 3 1760 1532 275 227
1772 3 1760 1532 275 289
1773 3 1520 1532 1760 1712
1774 3 1520 1532 1760 1774
1775 3 275 1532 1760 1712
1776 3 275 1532 1760 1774
1777 3 1522 1534 279 231
1778 3 1522 1534 279 286
1779 3 1658 1534 279 231
1780 3 1658 1534 279 286
1781 3 1522 1534 1658 1610
1782 3 1522 1534 1658 1663
1783 3 279 1534 1658 1610
1784 3 279 1534 1658 1663
1785 3 1712 1760 1774 1726
1786 3 1712 1760 1774 479
1787 3 1532 1760 1774 1726
1788 3 1532 1760 1774 479
1789 3 435 483 495 447
1790 3 435 483 495 476
1791 3 1742 483 495 447
1792 3 1742 483 495 476
1793 3 434 482 493 445
1794 3 434 482 493 581
1795 3 257 482 493 445
1796 3 257 482 493 581
1797 3 458 470 484 436
1798 3 458 470 484 496
1799 3 1119 470 484 436
1800 3 1119 470 484 496
1801 3 458 470 1119 1071
1802 3 458 470 1119 1131
1803 3 484 470 1119 1071
1804 3 484 470 1119 1131
1805 3 436 484 496 448
1806 3 436 484 496 1112
1807 3 470 484 496 448
1808 3 470 484 496 1112
1809 3 1071 1119 1131 1083
1810 3 1071 1119 1131 1112
1811 3 470 1119 1131 1083
1812 3 470 1119 1131 1112
1813 3 1070 1118 1129 1081
1814 3 1070 1118 1129 1217
1815 3 893 1118 1129 1081
1816 3 893 1118 1129 1217
1817 3 1094 1106 1120 1072
1818 3 1094 1106 1120 1132
1819 3 1755 1106 1120 1072
1820 3 1755 1106 1120 1132
1821 3 1094 1106 1755 1707
1822 3 1094 1106 1755 1767
1823 3 1120 1106 1755 1707
1824 3 1120 1106 1755 1767
1825 3 1072 1120 1132 1084
1826 3 1072 1120 1132 1748
1827 3 1106 1120 1132 1084
1828 3 1106 1120 1132 1748
1829 3 1707 1755 1767 1719
1830 3 1707 1755 1767 1748
1831 3 1106 1755 1767 1719
1832 3 1106 1755 1767 1748
1833 3 1706 1754 1765 1717
1834 3 1706 1754 1765 1853
1835 3 1529 1754 1765 1717
1836 3 1529 1754 1765 1853
1837 3 1730 1742 483 435
1838 3 1730 1742 483 495
1839 3 1756 1742 483 435
1840 3 1756 1742 483 495
1841 3 1730 1742 1756 1708
1842 3 1730 1742 1756 1768
1843 3 483 1742 1756 1708
1844 3 483 1742 1756 1768
1845 3 1708 1756 1768 1720
1846 3 1708 1756 1768 476
1847 3 1742 1756 1768 1720
1848 3 1742 1756 1768 476
1849 3 439 487 501 453
1850 3 439 487 501 55
1851 3 1744 487 501 453
1852 3 1744 487 501 55
1853 3 443 491 498 450
1854 3 443 491 498 583
1855 3 1746 491 498 450
1856 3 1746 491 498 583
1857 3 459 471 485 437
1858 3 459 471 485 504
1859 3 592 471 485 437
1860 3 592 471 485 504
1861 3 459 471 592 544
1862 3 459 471 592 609
1863 3 485 471 592 544
1864 3 485 471 592 609
1865 3 461 473 65 17
1866 3 461 473 65 75
1867 3 490 473 65 17
1868 3 490 473 65 75
1869 3 461 473 490 442
1870 3 461 473 490 500
1871 3 65 473 490 442
1872 3 65 473 490 500
1873 3 437 485 504 456
1874 3 437 485 504 586
1875 3 471 485 504 456
1876 3 471 485 504 586
1877 3 442 490 500 452
1878 3 442 490 500 54
1879 3 473 490 500 452
1880 3 473 490 500 54
1881 1 507 457 469 587
1882 1 507 457 469 58
1883 1 508 457 469 587
1884 1 508 457 469 58
1885 2 469 457 507 425
1886 2 508 457 507 425
1887 2 469 457 508 426
1888 2 507 457 508 426
1889 1 509 458 470 1119
1890 1 509 458 470 484
1891 1 510 458 470 1119
1892 1 510 458 470 484
1893 2 470 458 509 427
1894 2 510 458 509 427
1895 2 470 458 510 428
1896 2 509 458 510 428
1897 1 511 459 471 485
1898 1 511 459 471 592
1899 1 512 459 471 485
1900 1 512 459 471 592
1901 2 471 459 511 428
1902 2 512 459 511 428
1903 2 471 459 512 425
1904 2 511 459 512 425
1905 1 513 460 472 1123
1906 1 513 460 472 64
1907 1 514 460 472 1123
1908 1 514 460 472 64
1909 2 472 460 513 427
1910 2 514 460 513 427
1911 2 472 460 514 426
1912 2 513 460 514 426
1913 1 515 461 473 65
1914 1 515 461 473 490
1915 1 516 461 473 65
1916 1 516 461 473 490
1917 2 473 461 515 426
1918 2 516 461 515 426
1919 2 473 461 516 428
1920 2 515 461 516 428
1921 1 517 462 474 1127
1922 1 517 462 474 598
1923 1 518 462 474 1127
1924 1 518 462 474 598
1925 2 474 462 517 427
1926 2 518 462 517 427
1927 2 474 462 518 425
1928 2 517 462 518 425
1929 3 460 472 64 16
1930 3 460 472 64 78
1931 3 1123 472 64 16
1932 3 1123 472 64 78
1933 3 460 472 1123 1075
1934 3 460 472 1123 1137
1935 3 64 472 1123 1075
1936 3 64 472 1123 1137
1937 3 462 474 598 550
1938 3 462 474 598 603
1939 3 1127 474 598 550
1940 3 1127 474 598 603
1941 3 462 474 1127 1079
1942 3 462 474 1127 1134
1943 3 598 474 1127 1079
1944 3 598 474 1127 1134
1945 3 1075 1123 1137 1089
1946 3 1075 1123 1137 691
1947 3 472 1123 1137 1089
1948 3 472 1123 1137 691
1949 3 1079 1127 1134 1086
1950 3 1079 1127 1134 1219
1951 3 474 1127 1134 1086
1952 3 474 1127 1134 1219
1953 1 1143 1093 1105 1223
1954 1 1143 1093 1105 694
1955 1 1144 1093 1105 1223
1956 1 1144 1093 1105 694
1957 2 1105 1093 1143 1061
1958 2 1144 1093 1143 1061
1959 2 1105 1093 1144 1062
1960 2 1143 1093 1144 1062
1961 1 1145 1094 1106 1755
1962 1 1145 1094 1106 1120
1963 1 1146 1094 1106 1755
1964 1 1146 1094 1106 1120
1965 2 1106 1094 1145 1063
1966 2 1146 1094 1145 1063
1967 2 1106 1094 1146 1064
1968 2 1145 1094 1146 1064
1969 1 1147 1095 1107 1121
1970 1 1147 1095 1107 1228
1971 1 1148 1095 1107 1121
1972 1 1148 1095 1107 1228
1973 2 1107 1095 1147 1064
1974 2 1148 1095 1147 1064
1975 2 1107 1095 1148 1061
1976 2 1147 1095 1148 1061
1977 1 1151 1097 1109 701
1978 1 1151 1097 1109 1126
1979 1 1152 1097 1109 701
1980 1 1152 1097 1109 1126
1981 2 1109 1097 1151 1062
1982 2 1152 1097 1151 1062
1983 2 1109 1097 1152 1064
1984 2 1151 1097 1152 1064
1985 3 1095 1107 1121 1073
1986 3 1095 1107 1121 1140
1987 3 1228 1107 1121 1073
1988 3 1228 1107 1121 1140
1989 3 1095 1107 1228 1180
1990 3 1095 1107 1228 1245
1991 3 1121 1107 1228 1180
1992 3 1121 1107 1228 1245
1993 3 1097 1109 701 653
1994 3 1097 1109 701 711
1995 3 1126 1109 701 653
1996 3 1126 1109 701 711
1997 3 1097 1109 1126 1078
1998 3 1097 1109 1126 1136
1999 3 701 1109 1126 1078
2000 3 701 1109 1126 1136
2001 3 1073 1121 1140 1092
2002 3 1073 1121 1140 1222
2003 3 1107 1121 1140 1092
2004 3 1107 1121 1140 1222
2005 3 1078 1126 1136 1088
2006 3 1078 1126 1136 690
2007 3 1109 1126 1136 1088
2008 3 1109 1126 1136 690
2009 1 1149 1096 1108 1759
2010 1 1149 1096 1108 700
2011 1 1150 1096 1108 1759
2012 1 1150 1096 1108 700
2013 2 1108 1096 1149 1063
2014 2 1150 1096 1149 1063
2015 2 1108 1096 1150 1062
2016 2 1149 1096 1150 1062
2017 1 1153 1098 1110 1763
2018 1 1153 1098 1110 1234
2019 1 1154 1098 1110 1763
2020 1 1154 1098 1110 1234
2021 2 1110 1098 1153 1063
2022 2 1154 1098 1153 1063
2023 2 1110 1098 1154 1061
2024 2 1153 1098 1154 1061
2025 3 1096 1108 700 652
2026 3 1096 1108 700 714
2027 3 1759 1108 700 652
2028 3 1759 1108 700 714
2029 3 1096 1108 1759 1711
2030 3 1096 1108 1759 1773
2031 3 700 1108 1759 1711
2032 3 700 1108 1759 1773
2033 3 1098 1110 1234 1186
2034 3 1098 1110 1234 1239
2035 3 1763 1110 1234 1186
2036 3 1763 1110 1234 1239
2037 3 1098 1110 1763 1715
2038 3 1098 1110 1763 1770
2039 3 1234 1110 1763 1715
2040 3 1234 1110 1763 1770
2041 3 1711 1759 1773 1725
2042 3 1711 1759 1773 1327
2043 3 1108 1759 1773 1725
2044 3 1108 1759 1773 1327
2045 3 1715 1763 1770 1722
2046 3 1715 1763 1770 1855
2047 3 1110 1763 1770 1722
2048 3 1110 1763 1770 1855
2049 3 1731 1743 1757 1709
2050 3 1731 1743 1757 1776
2051 3 1864 1743 1757 1709
2052 3 1864 1743 1757 1776
2053 3 1731 1743 1864 1816
2054 3 1731 1743 1864 1881
2055 3 1757 1743 1864 1816
2056 3 1757 1743 1864 1881
2057 3 1733 1745 1337 1289
2058 3 1733 1745 1337 1347
2059 3 1762 1745 1337 1289
2060 3 1762 1745 1337 1347
2061 3 1733 1745 1762 1714
2062 3 1733 1745 1762 1772
2063 3 1337 1745 1762 1714
2064 3 1337 1745 1762 1772
2065 3 1709 1757 1776 1728
2066 3 1709 1757 1776 1858
2067 3 1743 1757 1776 1728
2068 3 1743 1757 1776 1858
2069 3 1714 1762 1772 1724
2070 3 1714 1762 1772 1326
2071 3 1745 1762 1772 1724
2072 3 1745 1762 1772 1326
2073 1 1779 1729 1741 1859
2074 1 1779 1729 1741 1330
2075 1 1780 1729 1741 1859
2076 1 1780 1729 1741 1330
2077 2 1741 1729 1779 1697
2078 2 1780 1729 1779 1697
2079 2 1741 1729 1780 1698
2080 2 1779 1729 1780 1698
2081 1 1781 1730 1742 483
2082 1 1781 1730 1742 1756
2083 1 1782 1730 1742 483
2084 1 1782 1730 1742 1756
2085 2 1742 1730 1781 1699
2086 2 1782 1730 1781 1699
2087 2 1742 1730 1782 1700
2088 2 1781 1730 1782 1700
2089 1 1783 1731 1743 1757
2090 1 1783 1731 1743 1864
2091 1 1784 1731 1743 1757
2092 1 1784 1731 1743 1864
2093 2 1743 1731 1783 1700
2094 2 1784 1731 1783 1700
2095 2 1743 1731 1784 1697
2096 2 1783 1731 1784 1697
2097 1 1785 1732 1744 487
2098 1 1785 1732 1744 1336
2099 1 1786 1732 1744 487
2100 1 1786 1732 1744 1336
2101 2 1744 1732 1785 1699
2102 2 1786 1732 1785 1699
2103 2 1744 1732 1786 1698
2104 2 1785 1732 1786 1698
2105 1 1787 1733 1745 1337
2106 1 1787 1733 1745 1762
2107 1 1788 1733 1745 1337
2108 1 1788 1733 1745 1762
2109 2 1745 1733 1787 1698
2110 2 1788 1733 1787 1698
2111 2 1745 1733 1788 1700
2112 2 1787 1733 1788 1700
2113 1 1789 1734 1746 491
2114 1 1789 1734 1746 1870
2115 1 1790 1734 1746 491
2116 1 1790 1734 1746 1870
2117 2 1746 1734 1789 1699
2118 2 1790 1734 1789 1699
2119 2 1746 1734 1790 1697
2120 2 1789 1734 1790 1697
2121 3 1732 1744 487 439
2122 3 1732 1744 487 501
2123 3 1336 1744 487 439
2124 3 1336 1744 487 501
2125 3 1732 1744 1336 1288
2126 3 1732 1744 1336 1350
2127 3 487 1744 1336 1288
2128 3 487 1744 1336 1350
2129 3 1734 1746 491 443
2130 3 1734 1746 491 498
2131 3 1870 1746 491 443
2132 3 1870 1746 491 498
2133 3 1734 1746 1870 1822
2134 3 1734 1746 1870 1875
2135 3 491 1746 1870 1822
2136 3 491 1746 1870 1875
2137 3 457 469 58 10
2138 3 457 469 58 69
2139 3 587 469 58 10
2140 3 587 469 58 69
2141 3 457 469 587 539
2142 3 457 469 587 600
2143 3 58 469 587 539
2144 3 58 469 587 600
2145 3 1093 1105 694 646
2146 3 1093 1105 694 705
2147 3 1223 1105 694 646
2148 3 1223 1105 694 705
2149 3 1093 1105 1223 1175
2150 3 1093 1105 1223 1236
2151 3 694 1105 1223 1175
2152 3 694 1105 1223 1236
2153 3 1729 1741 1330 1282
2154 3 1729 1741 1330 1341
2155 3 1859 1741 1330 1282
2156 3 1859 1741 1330 1341
2157 3 1729 1741 1859 1811
2158 3 1729 1741 1859 1872
2159 3 1330 1741 1859 1811
2160 3 1330 1741 1859 1872
2161 3 145 157 69 21
2162 3 145 157 69 58
2163 3 600 157 69 21
2164 3 600 157 69 58
2165 3 145 157 600 552
2166 3 145 157 600 587
2167 3 69 157 600 552
2168 3 69 157 600 587
2169 3 781 793 705 657
2170 3 781 793 705 694
2171 3 1236 793 705 657
2172 3 1236 793 705 694
2173 3 781 793 1236 1188
2174 3 781 793 1236 1223
2175 3 705 793 1236 1188
2176 3 705 793 1236 1223
2177 3 1417 1429 1341 1293
2178 3 1417 1429 1341 1330
2179 3 1872 1429 1341 1293
2180 3 1872 1429 1341 1330
2181 3 1417 1429 1872 1824
2182 3 1417 1429 1872 1859
2183 3 1341 1429 1872 1824
2184 3 1341 1429 1872 1859
2185 1 201 145 157 69
2186 1 201 145 157 600
2187 1 202 145 157 69
2188 1 202 145 157 600
2189 2 157 145 201 111
2190 2 202 145 201 111
2191 2 157 145 202 112
2192 2 201 145 202 112
2193 1 203 146 158 177
2194 1 203 146 158 1450
2195 1 204 146 158 177
2196 1 204 146 158 1450
2197 2 158 146 203 113
2198 2 204 146 203 113
2199 2 158 146 204 114
2200 2 203 146 204 114
2201 1 205 147 159 1451
2202 1 205 147 159 74
2203 1 206 147 159 1451
2204 1 206 147 159 74
2205 2 159 147 205 114
2206 2 206 147 205 114
2207 2 159 147 206 111
2208 2 205 147 206 111
2209 1 207 148 160 181
2210 1 207 148 160 606
2211 1 208 148 160 181
2212 1 208 148 160 606
2213 2 160 148 207 113
2214 2 208 148 207 113
2215 2 160 148 208 112
2216 2 207 148 208 112
2217 1 209 149 161 607
2218 1 209 149 161 1456
2219 1 210 149 161 607
2220 1 210 149 161 1456
2221 2 161 149 209 112
2222 2 210 149 209 112
2223 2 161 149 210 114
2224 2 209 149 210 114
2225 1 211 150 162 185
2226 1 211 150 162 80
2227 1 212 150 162 185
2228 1 212 150 162 80
2229 2 162 150 211 113
2230 2 212 150 211 113
2231 2 162 150 212 111
2232 2 211 150 212 111
2233 3 147 159 74 26
2234 3 147 159 74 67
2235 3 1451 159 74 26
2236 3 1451 159 74 67
2237 3 147 159 1451 1403
2238 3 147 159 1451 1446
2239 3 74 159 1451 1403
2240 3 74 159 1451 1446
2241 3 149 161 607 559
2242 3 149 161 607 593
2243 3 1456 161 607 559
2244 3 1456 161 607 593
2245 3 149 161 1456 1408
2246 3 149 161 1456 1442
2247 3 607 161 1456 1408
2248 3 607 161 1456 1442
2249 3 148 160 181 133
2250 3 148 160 181 171
2251 3 606 160 181 133
2252 3 606 160 181 171
2253 3 148 160 606 558
2254 3 148 160 606 596
2255 3 181 160 606 558
2256 3 181 160 606 596
2257 3 150 162 80 32
2258 3 150 162 80 61
2259 3 185 162 80 32
2260 3 185 162 80 61
2261 3 150 162 185 137
2262 3 150 162 185 168
2263 3 80 162 185 137
2264 3 80 162 185 168
2265 3 120 168 185 137
2266 3 120 168 185 162
2267 3 47 168 185 137
2268 3 47 168 185 162
2269 3 126 174 179 131
2270 3 126 174 179 795
2271 3 50 174 179 131
2272 3 50 174 179 795
2273 1 841 783 795 179
2274 1 841 783 795 710
2275 1 842 783 795 179
2276 1 842 783 795 710
2277 2 795 783 841 750
2278 2 842 783 841 750
2279 2 795 783 842 747
2280 2 841 783 842 747
2281 1 845 785 797 1243
2282 1 845 785 797 184
2283 1 846 785 797 1243
2284 1 846 785 797 184
2285 2 797 785 845 748
2286 2 846 785 845 748
2287 2 797 785 846 750
2288 2 845 785 846 750
2289 3 783 795 179 131
2290 3 783 795 179 174
2291 3 710 795 179 131
2292 3 710 795 179 174
2293 3 783 795 710 662
2294 3 783 795 710 703
2295 3 179 795 710 662
2296 3 179 795 710 703
2297 3 785 797 184 136
2298 3 785 797 184 170
2299 3 1243 797 184 136
2300 3 1243 797 184 170
2301 3 785 797 1243 1195
2302 3 785 797 1243 1229
2303 3 184 797 1243 1195
2304 3 184 797 1243 1229
2305 1 837 781 793 705
2306 1 837 781 793 1236
2307 1 838 781 793 705
2308 1 838 781 793 1236
2309 2 793 781 837 747
2310 2 838 781 837 747
2311 2 793 781 838 748
2312 2 837 781 838 748
2313 1 839 782 794 813
2314 1 839 782 794 178
2315 1 840 782 794 813
2316 1 840 782 794 178
2317 2 794 782 839 749
2318 2 840 782 839 749
2319 2 794 782 840 750
2320 2 839 782 840 750
2321 1 843 784 796 817
2322 1 843 784 796 1242
2323 1 844 784 796 817
2324 1 844 784 796 1242
2325 2 796 784 843 749
2326 2 844 784 843 749
2327 2 796 784 844 748
2328 2 843 784 844 748
2329 1 847 786 798 821
2330 1 847 786 798 716
2331 1 848 786 798 821
2332 1 848 786 798 716
2333 2 798 786 847 749
2334 2 848 786 847 749
2335 2 798 786 848 747
2336 2 847 786 848 747
2337 3 784 796 817 769
2338 3 784 796 817 807
2339 3 1242 796 817 769
2340 3 1242 796 817 807
2341 3 784 796 1242 1194
2342 3 784 796 1242 1232
2343 3 817 796 1242 1194
2344 3 817 796 1242 1232
2345 3 786 798 716 668
2346 3 786 798 716 697
2347 3 821 798 716 668
2348 3 821 798 716 697
2349 3 786 798 821 773
2350 3 786 798 821 804
2351 3 716 798 821 773
2352 3 716 798 821 804
2353 3 756 804 821 773
2354 3 756 804 821 798
2355 3 683 804 821 773
2356 3 683 804 821 798
2357 3 762 810 815 767
2358 3 762 810 815 1431
2359 3 686 810 815 767
2360 3 686 810 815 1431
2361 1 1473 1417 1429 1341
2362 1 1473 1417 1429 1872
2363 1 1474 1417 1429 1341
2364 1 1474 1417 1429 1872
2365 2 1429 1417 1473 1383
2366 2 1474 1417 1473 1383
2367 2 1429 1417 1474 1384
2368 2 1473 1417 1474 1384
2369 1 1475 1418 1430 1449
2370 1 1475 1418 1430 814
2371 1 1476 1418 1430 1449
2372 1 1476 1418 1430 814
2373 2 1430 1418 1475 1385
2374 2 1476 1418 1475 1385
2375 2 1430 1418 1476 1386
2376 2 1475 1418 1476 1386
2377 1 1477 1419 1431 815
2378 1 1477 1419 1431 1346
2379 1 1478 1419 1431 815
2380 1 1478 1419 1431 1346
2381 2 1431 1419 1477 1386
2382 2 1478 1419 1477 1386
2383 2 1431 1419 1478 1383
2384 2 1477 1419 1478 1383
2385 1 1479 1420 1432 1453
2386 1 1479 1420 1432 1878
2387 1 1480 1420 1432 1453
2388 1 1480 1420 1432 1878
2389 2 1432 1420 1479 1385
2390 2 1480 1420 1479 1385
2391 2 1432 1420 1480 1384
2392 2 1479 1420 1480 1384
2393 1 1481 1421 1433 1879
2394 1 1481 1421 1433 820
2395 1 1482 1421 1433 1879
2396 1 1482 1421 1433 820
2397 2 1433 1421 1481 1384
2398 2 1482 1421 1481 1384
2399 2 1433 1421 1482 1386
2400 2 1481 1421 1482 1386
2401 1 1483 1422 1434 1457
2402 1 1483 1422 1434 1352
2403 1 1484 1422 1434 1457
2404 1 1484 1422 1434 1352
2405 2 1434 1422 1483 1385
2406 2 1484 1422 1483 1385
2407 2 1434 1422 1484 1383
2408 2 1483 1422 1484 1383
2409 3 1419 1431 815 767
2410 3 1419 1431 815 810
2411 3 1346 1431 815 767
2412 3 1346 1431 815 810
2413 3 1419 1431 1346 1298
2414 3 1419 1431 1346 1339
2415 3 815 1431 1346 1298
2416 3 815 1431 1346 1339
2417 3 1421 1433 820 772
2418 3 1421 1433 820 806
2419 3 1879 1433 820 772
2420 3 1879 1433 820 806
2421 3 1421 1433 1879 1831
2422 3 1421 1433 1879 1865
2423 3 820 1433 1879 1831
2424 3 820 1433 1879 1865
2425 3 1420 1432 1453 1405
2426 3 1420 1432 1453 1443
2427 3 1878 1432 1453 1405
2428 3 1878 1432 1453 1443
2429 3 1420 1432 1878 1830
2430 3 1420 1432 1878 1868
2431 3 1453 1432 1878 1830
2432 3 1453 1432 1878 1868
2433 3 1422 1434 1352 1304
2434 3 1422 1434 1352 1333
2435 3 1457 1434 1352 1304
2436 3 1457 1434 1352 1333
2437 3 1422 1434 1457 1409
2438 3 1422 1434 1457 1440
2439 3 1352 1434 1457 1409
2440 3 1352 1434 1457 1440
2441 3 1392 1440 1457 1409
2442 3 1392 1440 1457 1434
2443 3 1319 1440 1457 1409
2444 3 1319 1440 1457 1434
2445 3 1398 1446 1451 1403
2446 3 1398 1446 1451 159
2447 3 1322 1446 1451 1403
2448 3 1322 1446 1451 159
2449 3 146 158 177 129
2450 3 146 158 177 165
2451 3 1450 158 177 129
2452 3 1450 158 177 165
2453 3 146 158 1450 1402
2454 3 146 158 1450 1438
2455 3 177 158 1450 1402
2456 3 177 158 1450 1438
2457 3 115 163 176 128
2458 3 115 163 176 369
2459 3 45 163 176 128
2460 3 45 163 176 369
2461 3 782 794 178 130
2462 3 782 794 178 166
2463 3 813 794 178 130
2464 3 813 794 178 166
2465 3 782 794 813 765
2466 3 782 794 813 801
2467 3 178 794 813 765
2468 3 178 794 813 801
2469 3 751 799 812 764
2470 3 751 799 812 1005
2471 3 681 799 812 764
2472 3 681 799 812 1005
2473 3 1418 1430 814 766
2474 3 1418 1430 814 802
2475 3 1449 1430 814 766
2476 3 1449 1430 814 802
2477 3 1418 1430 1449 1401
2478 3 1418 1430 1449 1437
2479 3 814 1430 1449 1401
2480 3 814 1430 1449 1437
2481 3 1387 1435 1448 1400
2482 3 1387 1435 1448 1641
2483 3 1317 1435 1448 1400
2484 3 1317 1435 1448 1641
2485 1 413 357 369 281
2486 1 413 357 369 176
2487 1 414 357 369 281
2488 1 414 357 369 176
2489 2 369 357 413 323
2490 2 414 357 413 323
2491 2 369 357 414 324
2492 2 413 357 414 324
2493 1 417 359 371 1663
2494 1 417 359 371 286
2495 1 418 359 371 1663
2496 1 418 359 371 286
2497 2 371 359 417 326
2498 2 418 359 417 326
2499 2 371 359 418 323
2500 2 417 359 418 323
2501 1 421 361 373 183
2502 1 421 361 373 1668
2503 1 422 361 373 183
2504 1 422 361 373 1668
2505 2 373 361 421 324
2506 2 422 361 421 324
2507 2 373 361 422 326
2508 2 421 361 422 326
2509 3 357 369 176 128
2510 3 357 369 176 163
2511 3 281 369 176 128
2512 3 281 369 176 163
2513 3 357 369 281 233
2514 3 357 369 281 270
2515 3 176 369 281 233
2516 3 176 369 281 270
2517 3 359 371 286 238
2518 3 359 371 286 279
2519 3 1663 371 286 238
2520 3 1663 371 286 279
2521 3 359 371 1663 1615
2522 3 359 371 1663 1658
2523 3 286 371 1663 1615
2524 3 286 371 1663 1658
2525 3 361 373 183 135
2526 3 361 373 183 169
2527 3 1668 373 183 135
2528 3 1668 373 183 169
2529 3 361 373 1668 1620
2530 3 361 373 1668 1654
2531 3 183 373 1668 1620
2532 3 183 373 1668 1654
2533 1 419 360 372 393
2534 1 419 360 372 182
2535 1 420 360 372 393
2536 1 420 360 372 182
2537 2 372 360 419 325
2538 2 420 360 419 325
2539 2 372 360 420 324
2540 2 419 360 420 324
2541 1 423 362 374 397
2542 1 423 362 374 292
2543 1 424 362 374 397
2544 1 424 362 374 292
2545 2 374 362 423 325
2546 2 424 362 423 325
2547 2 374 362 424 323
2548 2 423 362 424 323
2549 3 360 372 182 134
2550 3 360 372 182 172
2551 3 393 372 182 134
2552 3 393 372 182 172
2553 3 360 372 393 345
2554 3 360 372 393 383
2555 3 182 372 393 345
2556 3 182 372 393 383
2557 3 362 374 292 244
2558 3 362 374 292 273
2559 3 397 374 292 244
2560 3 397 374 292 273
2561 3 362 374 397 349
2562 3 362 374 397 380
2563 3 292 374 397 349
2564 3 292 374 397 380
2565 3 995 1007 391 343
2566 3 995 1007 391 386
2567 3 922 1007 391 343
2568 3 922 1007 391 386
2569 3 995 1007 922 874
2570 3 995 1007 922 915
2571 3 391 1007 922 874
2572 3 391 1007 922 915
2573 3 997 1009 396 348
2574 3 997 1009 396 382
2575 3 819 1009 396 348
2576 3 819 1009 396 382
2577 3 997 1009 819 771
2578 3 997 1009 819 805
2579 3 396 1009 819 771
2580 3 396 1009 819 805
2581 1 1049 993 1005 917
2582 1 1049 993 1005 812
2583 1 1050 993 1005 917
2584 1 1050 993 1005 812
2585 2 1005 993 1049 959
2586 2 1050 993 1049 959
2587 2 1005 993 1050 960
2588 2 1049 993 1050 960
2589 1 1053 995 1007 391
2590 1 1053 995 1007 922
2591 1 1054 995 1007 391
2592 1 1054 995 1007 922
2593 2 1007 995 1053 962
2594 2 1054 995 1053 962
2595 2 1007 995 1054 959
2596 2 1053 995 1054 959
2597 1 1055 996 1008 1029
2598 1 1055 996 1008 818
2599 1 1056 996 1008 1029
2600 1 1056 996 1008 818
2601 2 1008 996 1055 961
2602 2 1056 996 1055 961
2603 2 1008 996 1056 960
2604 2 1055 996 1056 960
2605 1 1057 997 1009 819
2606 1 1057 997 1009 396
2607 1 1058 997 1009 819
2608 1 1058 997 1009 396
2609 2 1009 997 1057 960
2610 2 1058 997 1057 960
2611 2 1009 997 1058 962
2612 2 1057 997 1058 962
2613 1 1059 998 1010 1033
2614 1 1059 998 1010 928
2615 1 1060 998 1010 1033
2616 1 1060 998 1010 928
2617 2 1010 998 1059 961
2618 2 1060 998 1059 961
2619 2 1010 998 1060 959
2620 2 1059 998 1060 959
2621 3 993 1005 812 764
2622 3 993 1005 812 799
2623 3 917 1005 812 764
2624 3 917 1005 812 799
2625 3 993 1005 917 869
2626 3 993 1005 917 906
2627 3 812 1005 917 869
2628 3 812 1005 917 906
2629 3 996 1008 818 770
2630 3 996 1008 818 808
2631 3 1029 1008 818 770
2632 3 1029 1008 818 808
2633 3 996 1008 1029 981
2634 3 996 1008 1029 1019
2635 3 818 1008 1029 981
2636 3 818 1008 1029 1019
2637 3 998 1010 928 880
2638 3 998 1010 928 909
2639 3 1033 1010 928 880
2640 3 1033 1010 928 909
2641 3 998 1010 1033 985
2642 3 998 1010 1033 1016
2643 3 928 1010 1033 985
2644 3 928 1010 1033 1016
2645 1 1685 1629 1641 1553
2646 1 1685 1629 1641 1448
2647 1 1686 1629 1641 1553
2648 1 1686 1629 1641 1448
2649 2 1641 1629 1685 1595
2650 2 1686 1629 1685 1595
2651 2 1641 1629 1686 1596
2652 2 1685 1629 1686 1596
2653 1 1689 1631 1643 1027
2654 1 1689 1631 1643 1558
2655 1 1690 1631 1643 1027
2656 1 1690 1631 1643 1558
2657 2 1643 1631 1689 1598
2658 2 1690 1631 1689 1598
2659 2 1643 1631 1690 1595
2660 2 1689 1631 1690 1595
2661 1 1693 1633 1645 1455
2662 1 1693 1633 1645 1032
2663 1 1694 1633 1645 1455
2664 1 1694 1633 1645 1032
2665 2 1645 1633 1693 1596
2666 2 1694 1633 1693 1596
2667 2 1645 1633 1694 1598
2668 2 1693 1633 1694 1598
2669 3 1629 1641 1448 1400
2670 3 1629 1641 1448 1435
2671 3 1553 1641 1448 1400
2672 3 1553 1641 1448 1435
2673 3 1629 1641 1553 1505
2674 3 1629 1641 1553 1542
2675 3 1448 1641 1553 1505
2676 3 1448 1641 1553 1542
2677 3 1631 1643 1027 979
2678 3 1631 1643 1027 1022
2679 3 1558 1643 1027 979
2680 3 1558 1643 1027 1022
2681 3 1631 1643 1558 1510
2682 3 1631 1643 1558 1551
2683 3 1027 1643 1558 1510
2684 3 1027 1643 1558 1551
2685 3 1633 1645 1032 984
2686 3 1633 1645 1032 1018
2687 3 1455 1645 1032 984
2688 3 1455 1645 1032 1018
2689 3 1633 1645 1455 1407
2690 3 1633 1645 1455 1441
2691 3 1032 1645 1455 1407
2692 3 1032 1645 1455 1441
2693 1 1691 1632 1644 1665
2694 1 1691 1632 1644 1454
2695 1 1692 1632 1644 1665
2696 1 1692 1632 1644 1454
2697 2 1644 1632 1691 1597
2698 2 1692 1632 1691 1597
2699 2 1644 1632 1692 1596
2700 2 1691 1632 1692 1596
2701 1 1695 1634 1646 1669
2702 1 1695 1634 1646 1564
2703 1 1696 1634 1646 1669
2704 1 1696 1634 1646 1564
2705 2 1646 1634 1695 1597
2706 2 1696 1634 1695 1597
2707 2 1646 1634 1696 1595
2708 2 1695 1634 1696 1595
2709 3 1632 1644 1454 1406
2710 3 1632 1644 1454 1444
2711 3 1665 1644 1454 1406
2712 3 1665 1644 1454 1444
2713 3 1632 1644 1665 1617
2714 3 1632 1644 1665 1655
2715 3 1454 1644 1665 1617
2716 3 1454 1644 1665 1655
2717 3 1634 1646 1564 1516
2718 3 1634 1646 1564 1545
2719 3 1669 1646 1564 1516
2720 3 1669 1646 1564 1545
2721 3 1634 1646 1669 1621
2722 3 1634 1646 1669 1652
2723 3 1564 1646 1669 1621
2724 3 1564 1646 1669 1652
2725 1 415 358 370 389
2726 1 415 358 370 1662
2727 1 416 358 370 389
2728 1 416 358 370 1662
2729 2 370 358 415 325
2730 2 416 358 415 325
2731 2 370 358 416 326
2732 2 415 358 416 326
2733 3 358 370 389 341
2734 3 358 370 389 377
2735 3 1662 370 389 341
2736 3 1662 370 389 377
2737 3 358 370 1662 1614
2738 3 358 370 1662 1650
2739 3 389 370 1662 1614
2740 3 389 370 1662 1650
2741 3 332 380 397 349
2742 3 332 380 397 374
2743 3 259 380 397 349
2744 3 259 380 397 374
2745 3 327 375 388 340
2746 3 327 375 388 581
2747 3 257 375 388 340
2748 3 257 375 388 581
2749 3 338 386 391 343
2750 3 338 386 391 1007
2751 3 262 386 391 343
2752 3 262 386 391 1007
2753 1 1051 994 1006 1025
2754 1 1051 994 1006 390
2755 1 1052 994 1006 1025
2756 1 1052 994 1006 390
2757 2 1006 994 1051 961
2758 2 1052 994 1051 961
2759 2 1006 994 1052 962
2760 2 1051 994 1052 962
2761 3 994 1006 390 342
2762 3 994 1006 390 378
2763 3 1025 1006 390 342
2764 3 1025 1006 390 378
2765 3 994 1006 1025 977
2766 3 994 1006 1025 1013
2767 3 390 1006 1025 977
2768 3 390 1006 1025 1013
2769 3 963 1011 1024 976
2770 3 963 1011 1024 1217
2771 3 893 1011 1024 976
2772 3 893 1011 1024 1217
2773 3 968 1016 1033 985
2774 3 968 1016 1033 1010
2775 3 895 1016 1033 985
2776 3 895 1016 1033 1010
2777 3 974 1022 1027 979
2778 3 974 1022 1027 1643
2779 3 898 1022 1027 979
2780 3 898 1022 1027 1643
2781 1 1687 1630 1642 1661
2782 1 1687 1630 1642 1026
2783 1 1688 1630 1642 1661
2784 1 1688 1630 1642 1026
2785 2 1642 1630 1687 1597
2786 2 1688 1630 1687 1597
2787 2 1642 1630 1688 1598
2788 2 1687 1630 1688 1598
2789 3 1630 1642 1026 978
2790 3 1630 1642 1026 1014
2791 3 1661 1642 1026 978
2792 3 1661 1642 1026 1014
2793 3 1630 1642 1661 1613
2794 3 1630 1642 1661 1649
2795 3 1026 1642 1661 1613
2796 3 1026 1642 1661 1649
2797 3 1604 1652 1669 1621
2798 3 1604 1652 1669 1646
2799 3 1531 1652 1669 1621
2800 3 1531 1652 1669 1646
2801 3 1599 1647 1660 1612
2802 3 1599 1647 1660 1853
2803 3 1529 1647 1660 1612
2804 3 1529 1647 1660 1853
2805 3 1610 1658 1663 1615
2806 3 1610 1658 1663 371
2807 3 1534 1658 1663 1615
2808 3 1534 1658 1663 371
2809 1 633 573 585 395
2810 1 633 573 585 1880
2811 1 634 573 585 395
2812 1 634 573 585 1880
2813 2 585 573 633 536
2814 2 634 573 633 536
2815 2 585 573 634 538
2816 2 633 573 634 538
2817 3 573 585 395 347
2818 3 573 585 395 381
2819 3 1880 585 395 347
2820 3 1880 585 395 381
2821 3 573 585 1880 1832
2822 3 573 585 1880 1866
2823 3 395 585 1880 1832
2824 3 395 585 1880 1866
2825 1 625 569 581 493
2826 1 625 569 581 388
2827 1 626 569 581 493
2828 1 626 569 581 388
2829 2 581 569 625 535
2830 2 626 569 625 535
2831 2 581 569 626 536
2832 2 625 569 626 536
2833 1 631 572 584 605
2834 1 631 572 584 394
2835 1 632 572 584 605
2836 1 632 572 584 394
2837 2 584 572 631 537
2838 2 632 572 631 537
2839 2 584 572 632 536
2840 2 631 572 632 536
2841 3 569 581 388 340
2842 3 569 581 388 375
2843 3 493 581 388 340
2844 3 493 581 388 375
2845 3 569 581 493 445
2846 3 569 581 493 482
2847 3 388 581 493 445
2848 3 388 581 493 482
2849 3 572 584 394 346
2850 3 572 584 394 384
2851 3 605 584 394 346
2852 3 605 584 394 384
2853 3 572 584 605 557
2854 3 572 584 605 595
2855 3 394 584 605 557
2856 3 394 584 605 595
2857 1 1261 1205 1217 1129
2858 1 1261 1205 1217 1024
2859 1 1262 1205 1217 1129
2860 1 1262 1205 1217 1024
2861 2 1217 1205 1261 1171
2862 2 1262 1205 1261 1171
2863 2 1217 1205 1262 1172
2864 2 1261 1205 1262 1172
2865 1 1267 1208 1220 1241
2866 1 1267 1208 1220 1030
2867 1 1268 1208 1220 1241
2868 1 1268 1208 1220 1030
2869 2 1220 1208 1267 1173
2870 2 1268 1208 1267 1173
2871 2 1220 1208 1268 1172
2872 2 1267 1208 1268 1172
2873 1 1269 1209 1221 1031
2874 1 1269 1209 1221 608
2875 1 1270 1209 1221 1031
2876 1 1270 1209 1221 608
2877 2 1221 1209 1269 1172
2878 2 1270 1209 1269 1172
2879 2 1221 1209 1270 1174
2880 2 1269 1209 1270 1174
2881 3 1205 1217 1024 976
2882 3 1205 1217 1024 1011
2883 3 1129 1217 1024 976
2884 3 1129 1217 1024 1011
2885 3 1205 1217 1129 1081
2886 3 1205 1217 1129 1118
2887 3 1024 1217 1129 1081
2888 3 1024 1217 1129 1118
2889 3 1209 1221 608 560
2890 3 1209 1221 608 594
2891 3 1031 1221 608 560
2892 3 1031 1221 608 594
2893 3 1209 1221 1031 983
2894 3 1209 1221 1031 1017
2895 3 608 1221 1031 983
2896 3 608 1221 1031 1017
2897 3 1208 1220 1030 982
2898 3 1208 1220 1030 1020
2899 3 1241 1220 1030 982
2900 3 1241 1220 1030 1020
2901 3 1208 1220 1241 1193
2902 3 1208 1220 1241 1231
2903 3 1030 1220 1241 1193
2904 3 1030 1220 1241 1231
2905 1 1905 1845 1857 1667
2906 1 1905 1845 1857 1244
2907 1 1906 1845 1857 1667
2908 1 1906 1845 1857 1244
2909 2 1857 1845 1905 1808
2910 2 1906 1845 1905 1808
2911 2 1857 1845 1906 1810
2912 2 1905 1845 1906 1810
2913 3 1845 1857 1244 1196
2914 3 1845 1857 1244 1230
2915 3 1667 1857 1244 1196
2916 3 1667 1857 1244 1230
2917 3 1845 1857 1667 1619
2918 3 1845 1857 1667 1653
2919 3 1244 1857 1667 1619
2920 3 1244 1857 1667 1653
2921 1 1897 1841 1853 1765
2922 1 1897 1841 1853 1660
2923 1 1898 1841 1853 1765
2924 1 1898 1841 1853 1660
2925 2 1853 1841 1897 1807
2926 2 1898 1841 1897 1807
2927 2 1853 1841 1898 1808
2928 2 1897 1841 1898 1808
2929 1 1903 1844 1856 1877
2930 1 1903 1844 1856 1666
2931 1 1904 1844 1856 1877
2932 1 1904 1844 1856 1666
2933 2 1856 1844 1903 1809
2934 2 1904 1844 1903 1809
2935 2 1856 1844 1904 1808
2936 2 1903 1844 1904 1808
2937 3 1841 1853 1660 1612
2938 3 1841 1853 1660 1647
2939 3 1765 1853 1660 1612
2940 3 1765 1853 1660 1647
2941 3 1841 1853 1765 1717
2942 3 1841 1853 1765 1754
2943 3 1660 1853 1765 1717
2944 3 1660 1853 1765 1754
2945 3 1844 1856 1666 1618
2946 3 1844 1856 1666 1656
2947 3 1877 1856 1666 1618
2948 3 1877 1856 1666 1656
2949 3 1844 1856 1877 1829
2950 3 1844 1856 1877 1867
2951 3 1666 1856 1877 1829
2952 3 1666 1856 1877 1867
2953 1 629 571 583 1875
2954 1 629 571 583 498
2955 1 630 571 583 1875
2956 1 630 571 583 498
2957 2 583 571 629 538
2958 2 630 571 629 538
2959 2 583 571 630 535
2960 2 629 571 630 535
2961 3 571 583 498 450
2962 3 571 583 498 491
2963 3 1875 583 498 450
2964 3 1875 583 498 491
2965 3 571 583 1875 1827
2966 3 571 583 1875 1870
2967 3 498 583 1875 1827
2968 3 498 583 1875 1870
2969 1 627 570 582 601
2970 1 627 570 582 1874
2971 1 628 570 582 601
2972 1 628 570 582 1874
2973 2 582 570 627 537
2974 2 628 570 627 537
2975 2 582 570 628 538
2976 2 627 570 628 538
2977 1 635 574 586 609
2978 1 635 574 586 504
2979 1 636 574 586 609
2980 1 636 574 586 504
2981 2 586 574 635 537
2982 2 636 574 635 537
2983 2 586 574 636 535
2984 2 635 574 636 535
2985 3 570 582 601 553
2986 3 570 582 601 589
2987 3 1874 582 601 553
2988 3 1874 582 601 589
2989 3 570 582 1874 1826
2990 3 570 582 1874 1862
2991 3 601 582 1874 1826
2992 3 601 582 1874 1862
2993 3 574 586 504 456
2994 3 574 586 504 485
2995 3 609 586 504 456
2996 3 609 586 504 485
2997 3 574 586 609 561
2998 3 574 586 609 592
2999 3 504 586 609 561
3000 3 504 586 609 592
3001 3 544 592 609 561
3002 3 544 592 609 586
3003 3 471 592 609 561
3004 3 471 592 609 586
3005 3 550 598 603 555
3006 3 550 598 603 1219
3007 3 474 598 603 555
3008 3 474 598 603 1219
3009 1 1263 1206 1218 1237
3010 1 1263 1206 1218 602
3011 1 1264 1206 1218 1237
3012 1 1264 1206 1218 602
3013 2 1218 1206 1263 1173
3014 2 1264 1206 1263 1173
3015 2 1218 1206 1264 1174
3016 2 1263 1206 1264 1174
3017 1 1265 1207 1219 603
3018 1 1265 1207 1219 1134
3019 1 1266 1207 1219 603
3020 1 1266 1207 1219 1134
3021 2 1219 1207 1265 1174
3022 2 1266 1207 1265 1174
3023 2 1219 1207 1266 1171
3024 2 1265 1207 1266 1171
3025 1 1271 1210 1222 1245
3026 1 1271 1210 1222 1140
3027 1 1272 1210 1222 1245
3028 1 1272 1210 1222 1140
3029 2 1222 1210 1271 1173
3030 2 1272 1210 1271 1173
3031 2 1222 1210 1272 1171
3032 2 1271 1210 1272 1171
3033 3 1206 1218 602 554
3034 3 1206 1218 602 590
3035 3 1237 1218 602 554
3036 3 1237 1218 602 590
3037 3 1206 1218 1237 1189
3038 3 1206 1218 1237 1225
3039 3 602 1218 1237 1189
3040 3 602 1218 1237 1225
3041 3 1207 1219 603 555
3042 3 1207 1219 603 598
3043 3 1134 1219 603 555
3044 3 1134 1219 603 598
3045 3 1207 1219 1134 1086
3046 3 1207 1219 1134 1127
3047 3 603 1219 1134 1086
3048 3 603 1219 1134 1127
3049 3 1210 1222 1140 1092
3050 3 1210 1222 1140 1121
3051 3 1245 1222 1140 1092
3052 3 1245 1222 1140 1121
3053 3 1210 1222 1245 1197
3054 3 1210 1222 1245 1228
3055 3 1140 1222 1245 1197
3056 3 1140 1222 1245 1228
3057 3 1180 1228 1245 1197
3058 3 1180 1228 1245 1222
3059 3 1107 1228 1245 1197
3060 3 1107 1228 1245 1222
3061 3 1186 1234 1239 1191
3062 3 1186 1234 1239 1855
3063 3 1110 1234 1239 1191
3064 3 1110 1234 1239 1855
3065 1 1901 1843 1855 1239
3066 1 1901 1843 1855 1770
3067 1 1902 1843 1855 1239
3068 1 1902 1843 1855 1770
3069 2 1855 1843 1901 1810
3070 2 1902 1843 1901 1810
3071 2 1855 1843 1902 1807
3072 2 1901 1843 1902 1807
3073 3 1843 1855 1239 1191
3074 3 1843 1855 1239 1234
3075 3 1770 1855 1239 1191
3076 3 1770 1855 1239 1234
3077 3 1843 1855 1770 1722
3078 3 1843 1855 1770 1763
3079 3 1239 1855 1770 1722
3080 3 1239 1855 1770 1763
3081 1 1899 1842 1854 1873
3082 1 1899 1842 1854 1238
3083 1 1900 1842 1854 1873
3084 1 1900 1842 1854 1238
3085 2 1854 1842 1899 1809
3086 2 1900 1842 1899 1809
3087 2 1854 1842 1900 1810
3088 2 1899 1842 1900 1810
3089 1 1907 1846 1858 1881
3090 1 1907 1846 1858 1776
3091 1 1908 1846 1858 1881
3092 1 1908 1846 1858 1776
3093 2 1858 1846 1907 1809
3094 2 1908 1846 1907 1809
3095 2 1858 1846 1908 1807
3096 2 1907 1846 1908 1807
3097 3 1842 1854 1238 1190
3098 3 1842 1854 1238 1226
3099 3 1873 1854 1238 1190
3100 3 1873 1854 1238 1226
3101 3 1842 1854 1873 1825
3102 3 1842 1854 1873 1861
3103 3 1238 1854 1873 1825
3104 3 1238 1854 1873 1861
3105 3 1846 1858 1776 1728
3106 3 1846 1858 1776 1757
3107 3 1881 1858 1776 1728
3108 3 1881 1858 1776 1757
3109 3 1846 1858 1881 1833
3110 3 1846 1858 1881 1864
3111 3 1776 1858 1881 1833
3112 3 1776 1858 1881 1864
3113 3 1816 1864 1881 1833
3114 3 1816 1864 1881 1858
3115 3 1743 1864 1881 1833
3116 3 1743 1864 1881 1858
3117 3 1822 1870 1875 1827
3118 3 1822 1870 1875 583
3119 3 1746 1870 1875 1827
3120 3 1746 1870 1875 583
3121 3 539 587 600 552
3122 3 539 587 600 157
3123 3 469 587 600 552
3124 3 469 587 600 157
3125 3 1175 1223 1236 1188
3126 3 1175 1223 1236 793
3127 3 1105 1223 1236 1188
3128 3 1105 1223 1236 793
3129 3 1811 1859 1872 1824
3130 3 1811 1859 1872 1429
3131 3 1741 1859 1872 1824
3132 3 1741 1859 1872 1429
3133 3 116 164 175 127
3134 3 116 164 175 51
3135 3 575 164 175 127
3136 3 575 164 175 51
3137 3 123 171 181 133
3138 3 123 171 181 160
3139 3 579 171 181 133
3140 3 579 171 181 160
3141 3 122 170 184 136
3142 3 122 170 184 797
3143 3 578 170 184 136
3144 3 578 170 184 797
3145 3 759 807 817 769
3146 3 759 807 817 796
3147 3 1215 807 817 769
3148 3 1215 807 817 796
3149 3 752 800 811 763
3150 3 752 800 811 687
3151 3 1211 800 811 763
3152 3 1211 800 811 687
3153 3 758 806 820 772
3154 3 758 806 820 1433
3155 3 1214 806 820 772
3156 3 1214 806 820 1433
3157 3 1388 1436 1447 1399
3158 3 1388 1436 1447 1323
3159 3 1847 1436 1447 1399
3160 3 1847 1436 1447 1323
3161 3 1395 1443 1453 1405
3162 3 1395 1443 1453 1432
3163 3 1851 1443 1453 1405
3164 3 1851 1443 1453 1432
3165 3 1394 1442 1456 1408
3166 3 1394 1442 1456 161
3167 3 1850 1442 1456 1408
3168 3 1850 1442 1456 161
3169 3 117 165 177 129
3170 3 117 165 177 158
3171 3 1424 165 177 129
3172 3 1424 165 177 158
3173 3 125 173 180 132
3174 3 125 173 180 53
3175 3 1428 173 180 132
3176 3 1428 173 180 53
3177 1 193 141 153 167
3178 1 193 141 153 62
3179 1 194 141 153 167
3180 1 194 141 153 62
3181 2 153 141 193 110
3182 2 194 141 193 110
3183 2 153 141 194 107
3184 2 193 141 194 107
3185 3 141 153 62 14
3186 3 141 153 62 79
3187 3 167 153 62 14
3188 3 167 153 62 79
3189 3 141 153 167 119
3190 3 141 153 167 186
3191 3 62 153 167 119
3192 3 62 153 167 186
3193 3 118 166 178 130
3194 3 118 166 178 794
3195 3 152 166 178 130
3196 3 152 166 178 794
3197 3 119 167 186 138
3198 3 119 167 186 56
3199 3 153 167 186 138
3200 3 153 167 186 56
3201 1 191 140 152 801
3202 1 191 140 152 166
3203 1 192 140 152 801
3204 1 192 140 152 166
3205 2 152 140 191 109
3206 2 192 140 191 109
3207 2 152 140 192 110
3208 2 191 140 192 110
3209 1 199 144 156 809
3210 1 199 144 156 68
3211 1 200 144 156 809
3212 1 200 144 156 68
3213 2 156 144 199 109
3214 2 200 144 199 109
3215 2 156 144 200 107
3216 2 199 144 200 107
3217 3 140 152 166 118
3218 3 140 152 166 178
3219 3 801 152 166 118
3220 3 801 152 166 178
3221 3 140 152 801 753
3222 3 140 152 801 813
3223 3 166 152 801 753
3224 3 166 152 801 813
3225 3 144 156 68 20
3226 3 144 156 68 73
3227 3 809 156 68 20
3228 3 809 156 68 73
3229 3 144 156 809 761
3230 3 144 156 809 816
3231 3 68 156 809 761
3232 3 68 156 809 816
3233 3 753 801 813 765
3234 3 753 801 813 794
3235 3 152 801 813 765
3236 3 152 801 813 794
3237 3 761 809 816 768
3238 3 761 809 816 689
3239 3 156 809 816 768
3240 3 156 809 816 689
3241 3 755 803 822 774
3242 3 755 803 822 692
3243 3 789 803 822 774
3244 3 789 803 822 692
3245 1 827 776 788 1437
3246 1 827 776 788 802
3247 1 828 776 788 1437
3248 1 828 776 788 802
3249 2 788 776 827 745
3250 2 828 776 827 745
3251 2 788 776 828 746
3252 2 827 776 828 746
3253 1 829 777 789 803
3254 1 829 777 789 698
3255 1 830 777 789 803
3256 1 830 777 789 698
3257 2 789 777 829 746
3258 2 830 777 829 746
3259 2 789 777 830 743
3260 2 829 777 830 743
3261 1 835 780 792 1445
3262 1 835 780 792 704
3263 1 836 780 792 1445
3264 1 836 780 792 704
3265 2 792 780 835 745
3266 2 836 780 835 745
3267 2 792 780 836 743
3268 2 835 780 836 743
3269 3 776 788 802 754
3270 3 776 788 802 814
3271 3 1437 788 802 754
3272 3 1437 788 802 814
3273 3 776 788 1437 1389
3274 3 776 788 1437 1449
3275 3 802 788 1437 1389
3276 3 802 788 1437 1449
3277 3 777 789 698 650
3278 3 777 789 698 715
3279 3 803 789 698 650
3280 3 803 789 698 715
3281 3 777 789 803 755
3282 3 777 789 803 822
3283 3 698 789 803 755
3284 3 698 789 803 822
3285 3 754 802 814 766
3286 3 754 802 814 1430
3287 3 788 802 814 766
3288 3 788 802 814 1430
3289 3 1389 1437 1449 1401
3290 3 1389 1437 1449 1430
3291 3 788 1437 1449 1401
3292 3 788 1437 1449 1430
3293 3 780 792 704 656
3294 3 780 792 704 709
3295 3 1445 792 704 656
3296 3 1445 792 704 709
3297 3 780 792 1445 1397
3298 3 780 792 1445 1452
3299 3 704 792 1445 1397
3300 3 704 792 1445 1452
3301 3 1397 1445 1452 1404
3302 3 1397 1445 1452 1325
3303 3 792 1445 1452 1404
3304 3 792 1445 1452 1325
3305 1 1465 1413 1425 1439
3306 1 1465 1413 1425 1334
3307 1 1466 1413 1425 1439
3308 1 1466 1413 1425 1334
3309 2 1425 1413 1465 1382
3310 2 1466 1413 1465 1382
3311 2 1425 1413 1466 1379
3312 2 1465 1413 1466 1379
3313 3 1413 1425 1334 1286
3314 3 1413 1425 1334 1351
3315 3 1439 1425 1334 1286
3316 3 1439 1425 1334 1351
3317 3 1413 1425 1439 1391
3318 3 1413 1425 1439 1458
3319 3 1334 1425 1439 1391
3320 3 1334 1425 1439 1458
3321 3 1391 1439 1458 1410
3322 3 1391 1439 1458 1328
3323 3 1425 1439 1458 1410
3324 3 1425 1439 1458 1328
3325 1 1463 1412 1424 165
3326 1 1463 1412 1424 1438
3327 1 1464 1412 1424 165
3328 1 1464 1412 1424 1438
3329 2 1424 1412 1463 1381
3330 2 1464 1412 1463 1381
3331 2 1424 1412 1464 1382
3332 2 1463 1412 1464 1382
3333 1 1471 1416 1428 173
3334 1 1471 1416 1428 1340
3335 1 1472 1416 1428 173
3336 1 1472 1416 1428 1340
3337 2 1428 1416 1471 1381
3338 2 1472 1416 1471 1381
3339 2 1428 1416 1472 1379
3340 2 1471 1416 1472 1379
3341 3 1412 1424 165 117
3342 3 1412 1424 165 177
3343 3 1438 1424 165 117
3344 3 1438 1424 165 177
3345 3 1412 1424 1438 1390
3346 3 1412 1424 1438 1450
3347 3 165 1424 1438 1390
3348 3 165 1424 1438 1450
3349 3 1416 1428 173 125
3350 3 1416 1428 173 180
3351 3 1340 1428 173 125
3352 3 1340 1428 173 180
3353 3 1416 1428 1340 1292
3354 3 1416 1428 1340 1345
3355 3 173 1428 1340 1292
3356 3 173 1428 1340 1345
3357 3 1390 1438 1450 1402
3358 3 1390 1438 1450 158
3359 3 1424 1438 1450 1402
3360 3 1424 1438 1450 158
3361 3 121 169 183 135
3362 3 121 169 183 373
3363 3 1426 169 183 135
3364 3 1426 169 183 373
3365 1 197 143 155 383
3366 1 197 143 155 172
3367 1 198 143 155 383
3368 1 198 143 155 172
3369 2 155 143 197 108
3370 2 198 143 197 108
3371 2 155 143 198 110
3372 2 197 143 198 110
3373 3 143 155 172 124
3374 3 143 155 172 182
3375 3 383 155 172 124
3376 3 383 155 172 182
3377 3 143 155 383 335
3378 3 143 155 383 393
3379 3 172 155 383 335
3380 3 172 155 383 393
3381 3 124 172 182 134
3382 3 124 172 182 372
3383 3 155 172 182 134
3384 3 155 172 182 372
3385 3 335 383 393 345
3386 3 335 383 393 372
3387 3 155 383 393 345
3388 3 155 383 393 372
3389 1 189 139 151 57
3390 1 189 139 151 376
3391 1 190 139 151 57
3392 1 190 139 151 376
3393 2 151 139 189 107
3394 2 190 139 189 107
3395 2 151 139 190 108
3396 2 189 139 190 108
3397 1 195 142 154 805
3398 1 195 142 154 382
3399 1 196 142 154 805
3400 1 196 142 154 382
3401 2 154 142 195 109
3402 2 196 142 195 109
3403 2 154 142 196 108
3404 2 195 142 196 108
3405 3 139 151 57 9
3406 3 139 151 57 70
3407 3 376 151 57 9
3408 3 376 151 57 70
3409 3 139 151 376 328
3410 3 139 151 376 387
3411 3 57 151 376 328
3412 3 57 151 376 387
3413 3 142 154 382 334
3414 3 142 154 382 396
3415 3 805 154 382 334
3416 3 805 154 382 396
3417 3 142 154 805 757
3418 3 142 154 805 819
3419 3 382 154 805 757
3420 3 382 154 805 819
3421 3 328 376 387 339
3422 3 328 376 387 263
3423 3 151 376 387 339
3424 3 151 376 387 263
3425 3 334 382 396 348
3426 3 334 382 396 1009
3427 3 154 382 396 348
3428 3 154 382 396 1009
3429 3 757 805 819 771
3430 3 757 805 819 1009
3431 3 154 805 819 771
3432 3 154 805 819 1009
3433 3 760 808 818 770
3434 3 760 808 818 1008
3435 3 791 808 818 770
3436 3 791 808 818 1008
3437 1 825 775 787 693
3438 1 825 775 787 1012
3439 1 826 775 787 693
3440 1 826 775 787 1012
3441 2 787 775 825 743
3442 2 826 775 825 743
3443 2 787 775 826 744
3444 2 825 775 826 744
3445 1 831 778 790 1441
3446 1 831 778 790 1018
3447 1 832 778 790 1441
3448 1 832 778 790 1018
3449 2 790 778 831 745
3450 2 832 778 831 745
3451 2 790 778 832 744
3452 2 831 778 832 744
3453 1 833 779 791 1019
3454 1 833 779 791 808
3455 1 834 779 791 1019
3456 1 834 779 791 808
3457 2 791 779 833 744
3458 2 834 779 833 744
3459 2 791 779 834 746
3460 2 833 779 834 746
3461 3 775 787 693 645
3462 3 775 787 693 706
3463 3 1012 787 693 645
3464 3 1012 787 693 706
3465 3 775 787 1012 964
3466 3 775 787 1012 1023
3467 3 693 787 1012 964
3468 3 693 787 1012 1023
3469 3 779 791 808 760
3470 3 779 791 808 818
3471 3 1019 791 808 760
3472 3 1019 791 808 818
3473 3 779 791 1019 971
3474 3 779 791 1019 1029
3475 3 808 791 1019 971
3476 3 808 791 1019 1029
3477 3 964 1012 1023 975
3478 3 964 1012 1023 899
3479 3 787 1012 1023 975
3480 3 787 1012 1023 899
3481 3 971 1019 1029 981
3482 3 971 1019 1029 1008
3483 3 791 1019 1029 981
3484 3 791 1019 1029 1008
3485 3 778 790 1018 970
3486 3 778 790 1018 1032
3487 3 1441 790 1018 970
3488 3 1441 790 1018 1032
3489 3 778 790 1441 1393
3490 3 778 790 1441 1455
3491 3 1018 790 1441 1393
3492 3 1018 790 1441 1455
3493 3 970 1018 1032 984
3494 3 970 1018 1032 1645
3495 3 790 1018 1032 984
3496 3 790 1018 1032 1645
3497 3 1393 1441 1455 1407
3498 3 1393 1441 1455 1645
3499 3 790 1441 1455 1407
3500 3 790 1441 1455 1645
3501 1 1469 1415 1427 1655
3502 1 1469 1415 1427 1444
3503 1 1470 1415 1427 1655
3504 1 1470 1415 1427 1444
3505 2 1427 1415 1469 1380
3506 2 1470 1415 1469 1380
3507 2 1427 1415 1470 1382
3508 2 1469 1415 1470 1382
3509 3 1415 1427 1444 1396
3510 3 1415 1427 1444 1454
3511 3 1655 1427 1444 1396
3512 3 1655 1427 1444 1454
3513 3 1415 1427 1655 1607
3514 3 1415 1427 1655 1665
3515 3 1444 1427 1655 1607
3516 3 1444 1427 1655 1665
3517 3 1396 1444 1454 1406
3518 3 1396 1444 1454 1644
3519 3 1427 1444 1454 1406
3520 3 1427 1444 1454 1644
3521 3 1607 1655 1665 1617
3522 3 1607 1655 1665 1644
3523 3 1427 1655 1665 1617
3524 3 1427 1655 1665 1644
3525 1 1461 1411 1423 1329
3526 1 1461 1411 1423 1648
3527 1 1462 1411 1423 1329
3528 1 1462 1411 1423 1648
3529 2 1423 1411 1461 1379
3530 2 1462 1411 1461 1379
3531 2 1423 1411 1462 1380
3532 2 1461 1411 1462 1380
3533 1 1467 1414 1426 169
3534 1 1467 1414 1426 1654
3535 1 1468 1414 1426 169
3536 1 1468 1414 1426 1654
3537 2 1426 1414 1467 1381
3538 2 1468 1414 1467 1381
3539 2 1426 1414 1468 1380
3540 2 1467 1414 1468 1380
3541 3 1411 1423 1329 1281
3542 3 1411 1423 1329 1342
3543 3 1648 1423 1329 1281
3544 3 1648 1423 1329 1342
3545 3 1411 1423 1648 1600
3546 3 1411 1423 1648 1659
3547 3 1329 1423 1648 1600
3548 3 1329 1423 1648 1659
3549 3 1414 1426 169 121
3550 3 1414 1426 169 183
3551 3 1654 1426 169 121
3552 3 1654 1426 169 183
3553 3 1414 1426 1654 1606
3554 3 1414 1426 1654 1668
3555 3 169 1426 1654 1606
3556 3 169 1426 1654 1668
3557 3 1600 1648 1659 1611
3558 3 1600 1648 1659 1535
3559 3 1423 1648 1659 1611
3560 3 1423 1648 1659 1535
3561 3 1606 1654 1668 1620
3562 3 1606 1654 1668 373
3563 3 1426 1654 1668 1620
3564 3 1426 1654 1668 373
3565 3 329 377 389 341
3566 3 329 377 389 370
3567 3 1636 377 389 341
3568 3 1636 377 389 370
3569 3 337 385 392 344
3570 3 337 385 392 265
3571 3 1640 385 392 344
3572 3 1640 385 392 265
3573 3 353 365 274 226
3574 3 353 365 274 291
3575 3 379 365 274 226
3576 3 379 365 274 291
3577 3 353 365 379 331
3578 3 353 365 379 398
3579 3 274 365 379 331
3580 3 274 365 379 398
3581 3 331 379 398 350
3582 3 331 379 398 268
3583 3 365 379 398 350
3584 3 365 379 398 268
3585 1 403 352 364 1013
3586 1 403 352 364 378
3587 1 404 352 364 1013
3588 1 404 352 364 378
3589 2 364 352 403 321
3590 2 404 352 403 321
3591 2 364 352 404 322
3592 2 403 352 404 322
3593 1 405 353 365 379
3594 1 405 353 365 274
3595 1 406 353 365 379
3596 1 406 353 365 274
3597 2 365 353 405 322
3598 2 406 353 405 322
3599 2 365 353 406 319
3600 2 405 353 406 319
3601 1 411 356 368 1021
3602 1 411 356 368 280
3603 1 412 356 368 1021
3604 1 412 356 368 280
3605 2 368 356 411 321
3606 2 412 356 411 321
3607 2 368 356 412 319
3608 2 411 356 412 319
3609 3 352 364 378 330
3610 3 352 364 378 390
3611 3 1013 364 378 330
3612 3 1013 364 378 390
3613 3 352 364 1013 965
3614 3 352 364 1013 1025
3615 3 378 364 1013 965
3616 3 378 364 1013 1025
3617 3 356 368 280 232
3618 3 356 368 280 285
3619 3 1021 368 280 232
3620 3 1021 368 280 285
3621 3 356 368 1021 973
3622 3 356 368 1021 1028
3623 3 280 368 1021 973
3624 3 280 368 1021 1028
3625 3 330 378 390 342
3626 3 330 378 390 1006
3627 3 364 378 390 342
3628 3 364 378 390 1006
3629 3 965 1013 1025 977
3630 3 965 1013 1025 1006
3631 3 364 1013 1025 977
3632 3 364 1013 1025 1006
3633 3 973 1021 1028 980
3634 3 973 1021 1028 901
3635 3 368 1021 1028 980
3636 3 368 1021 1028 901
3637 1 1039 988 1000 1649
3638 1 1039 988 1000 1014
3639 1 1040 988 1000 1649
3640 1 1040 988 1000 1014
3641 2 1000 988 1039 957
3642 2 1040 988 1039 957
3643 2 1000 988 1040 958
3644 2 1039 988 1040 958
3645 1 1041 989 1001 1015
3646 1 1041 989 1001 910
3647 1 1042 989 1001 1015
3648 1 1042 989 1001 910
3649 2 1001 989 1041 958
3650 2 1042 989 1041 958
3651 2 1001 989 1042 955
3652 2 1041 989 1042 955
3653 3 988 1000 1014 966
3654 3 988 1000 1014 1026
3655 3 1649 1000 1014 966
3656 3 1649 1000 1014 1026
3657 3 988 1000 1649 1601
3658 3 988 1000 1649 1661
3659 3 1014 1000 1649 1601
3660 3 1014 1000 1649 1661
3661 3 989 1001 910 862
3662 3 989 1001 910 927
3663 3 1015 1001 910 862
3664 3 1015 1001 910 927
3665 3 989 1001 1015 967
3666 3 989 1001 1015 1034
3667 3 910 1001 1015 967
3668 3 910 1001 1015 1034
3669 3 966 1014 1026 978
3670 3 966 1014 1026 1642
3671 3 1000 1014 1026 978
3672 3 1000 1014 1026 1642
3673 3 967 1015 1034 986
3674 3 967 1015 1034 904
3675 3 1001 1015 1034 986
3676 3 1001 1015 1034 904
3677 1 1047 992 1004 1657
3678 1 1047 992 1004 916
3679 1 1048 992 1004 1657
3680 1 1048 992 1004 916
3681 2 1004 992 1047 957
3682 2 1048 992 1047 957
3683 2 1004 992 1048 955
3684 2 1047 992 1048 955
3685 3 992 1004 916 868
3686 3 992 1004 916 921
3687 3 1657 1004 916 868
3688 3 1657 1004 916 921
3689 3 992 1004 1657 1609
3690 3 992 1004 1657 1664
3691 3 916 1004 1657 1609
3692 3 916 1004 1657 1664
3693 3 1601 1649 1661 1613
3694 3 1601 1649 1661 1642
3695 3 1000 1649 1661 1613
3696 3 1000 1649 1661 1642
3697 3 1609 1657 1664 1616
3698 3 1609 1657 1664 1537
3699 3 1004 1657 1664 1616
3700 3 1004 1657 1664 1537
3701 3 1625 1637 1546 1498
3702 3 1625 1637 1546 1563
3703 3 1651 1637 1546 1498
3704 3 1651 1637 1546 1563
3705 3 1625 1637 1651 1603
3706 3 1625 1637 1651 1670
3707 3 1546 1637 1651 1603
3708 3 1546 1637 1651 1670
3709 3 1603 1651 1670 1622
3710 3 1603 1651 1670 1540
3711 3 1637 1651 1670 1622
3712 3 1637 1651 1670 1540
3713 1 1675 1624 1636 377
3714 1 1675 1624 1636 1650
3715 1 1676 1624 1636 377
3716 1 1676 1624 1636 1650
3717 2 1636 1624 1675 1593
3718 2 1676 1624 1675 1593
3719 2 1636 1624 1676 1594
3720 2 1675 1624 1676 1594
3721 1 1677 1625 1637 1651
3722 1 1677 1625 1637 1546
3723 1 1678 1625 1637 1651
3724 1 1678 1625 1637 1546
3725 2 1637 1625 1677 1594
3726 2 1678 1625 1677 1594
3727 2 1637 1625 1678 1591
3728 2 1677 1625 1678 1591
3729 1 1683 1628 1640 385
3730 1 1683 1628 1640 1552
3731 1 1684 1628 1640 385
3732 1 1684 1628 1640 1552
3733 2 1640 1628 1683 1593
3734 2 1684 1628 1683 1593
3735 2 1640 1628 1684 1591
3736 2 1683 1628 1684 1591
3737 3 1624 1636 377 329
3738 3 1624 1636 377 389
3739 3 1650 1636 377 329
3740 3 1650 1636 377 389
3741 3 1624 1636 1650 1602
3742 3 1624 1636 1650 1662
3743 3 377 1636 1650 1602
3744 3 377 1636 1650 1662
3745 3 1628 1640 385 337
3746 3 1628 1640 385 392
3747 3 1552 1640 385 337
3748 3 1552 1640 385 392
3749 3 1628 1640 1552 1504
3750 3 1628 1640 1552 1557
3751 3 385 1640 1552 1504
3752 3 385 1640 1552 1557
3753 3 1602 1650 1662 1614
3754 3 1602 1650 1662 370
3755 3 1636 1650 1662 1614
3756 3 1636 1650 1662 370
3757 3 333 381 395 347
3758 3 333 381 395 585
3759 3 1638 381 395 347
3760 3 1638 381 395 585
3761 3 355 367 384 336
3762 3 355 367 384 394
3763 3 595 367 384 336
3764 3 595 367 384 394
3765 3 355 367 595 547
3766 3 355 367 595 605
3767 3 384 367 595 547
3768 3 384 367 595 605
3769 3 336 384 394 346
3770 3 336 384 394 584
3771 3 367 384 394 346
3772 3 367 384 394 584
3773 3 547 595 605 557
3774 3 547 595 605 584
3775 3 367 595 605 557
3776 3 367 595 605 584
3777 1 401 351 363 269
3778 1 401 351 363 588
3779 1 402 351 363 269
3780 1 402 351 363 588
3781 2 363 351 401 319
3782 2 402 351 401 319
3783 2 363 351 402 320
3784 2 401 351 402 320
3785 1 407 354 366 1017
3786 1 407 354 366 594
3787 1 408 354 366 1017
3788 1 408 354 366 594
3789 2 366 354 407 321
3790 2 408 354 407 321
3791 2 366 354 408 320
3792 2 407 354 408 320
3793 1 409 355 367 595
3794 1 409 355 367 384
3795 1 410 355 367 595
3796 1 410 355 367 384
3797 2 367 355 409 320
3798 2 410 355 409 320
3799 2 367 355 410 322
3800 2 409 355 410 322
3801 3 351 363 269 221
3802 3 351 363 269 282
3803 3 588 363 269 221
3804 3 588 363 269 282
3805 3 351 363 588 540
3806 3 351 363 588 599
3807 3 269 363 588 540
3808 3 269 363 588 599
3809 3 354 366 594 546
3810 3 354 366 594 608
3811 3 1017 366 594 546
3812 3 1017 366 594 608
3813 3 354 366 1017 969
3814 3 354 366 1017 1031
3815 3 594 366 1017 969
3816 3 594 366 1017 1031
3817 3 540 588 599 551
3818 3 540 588 599 475
3819 3 363 588 599 551
3820 3 363 588 599 475
3821 3 546 594 608 560
3822 3 546 594 608 1221
3823 3 366 594 608 560
3824 3 366 594 608 1221
3825 3 969 1017 1031 983
3826 3 969 1017 1031 1221
3827 3 366 1017 1031 983
3828 3 366 1017 1031 1221
3829 1 1037 987 999 905
3830 1 1037 987 999 1224
3831 1 1038 987 999 905
3832 1 1038 987 999 1224
3833 2 999 987 1037 955
3834 2 1038 987 1037 955
3835 2 999 987 1038 956
3836 2 1037 987 1038 956
3837 1 1045 991 1003 1231
3838 1 1045 991 1003 1020
3839 1 1046 991 1003 1231
3840 1 1046 991 1003 1020
3841 2 1003 991 1045 956
3842 2 1046 991 1045 956
3843 2 1003 991 1046 958
3844 2 1045 991 1046 958
3845 3 987 999 905 857
3846 3 987 999 905 918
3847 3 1224 999 905 857
3848 3 1224 999 905 918
3849 3 987 999 1224 1176
3850 3 987 999 1224 1235
3851 3 905 999 1224 1176
3852 3 905 999 1224 1235
3853 3 991 1003 1020 972
3854 3 991 1003 1020 1030
3855 3 1231 1003 1020 972
3856 3 1231 1003 1020 1030
3857 3 991 1003 1231 1183
3858 3 991 1003 1231 1241
3859 3 1020 1003 1231 1183
3860 3 1020 1003 1231 1241
3861 3 972 1020 1030 982
3862 3 972 1020 1030 1220
3863 3 1003 1020 1030 982
3864 3 1003 1020 1030 1220
3865 3 1176 1224 1235 1187
3866 3 1176 1224 1235 1111
3867 3 999 1224 1235 1187
3868 3 999 1224 1235 1111
3869 3 1183 1231 1241 1193
3870 3 1183 1231 1241 1220
3871 3 1003 1231 1241 1193
3872 3 1003 1231 1241 1220
3873 1 1043 990 1002 1653
3874 1 1043 990 1002 1230
3875 1 1044 990 1002 1653
3876 1 1044 990 1002 1230
3877 2 1002 990 1043 957
3878 2 1044 990 1043 957
3879 2 1002 990 1044 956
3880 2 1043 990 1044 956
3881 3 990 1002 1230 1182
3882 3 990 1002 1230 1244
3883 3 1653 1002 1230 1182
3884 3 1653 1002 1230 1244
3885 3 990 1002 1653 1605
3886 3 990 1002 1653 1667
3887 3 1230 1002 1653 1605
3888 3 1230 1002 1653 1667
3889 3 1182 1230 1244 1196
3890 3 1182 1230 1244 1857
3891 3 1002 1230 1244 1196
3892 3 1002 1230 1244 1857
3893 3 1605 1653 1667 1619
3894 3 1605 1653 1667 1857
3895 3 1002 1653 1667 1619
3896 3 1002 1653 1667 1857
3897 3 1627 1639 1656 1608
3898 3 1627 1639 1656 1666
3899 3 1867 1639 1656 1608
3900 3 1867 1639 1656 1666
3901 3 1627 1639 1867 1819
3902 3 1627 1639 1867 1877
3903 3 1656 1639 1867 1819
3904 3 1656 1639 1867 1877
3905 3 1608 1656 1666 1618
3906 3 1608 1656 1666 1856
3907 3 1639 1656 1666 1618
3908 3 1639 1656 1666 1856
3909 3 1819 1867 1877 1829
3910 3 1819 1867 1877 1856
3911 3 1639 1867 1877 1829
3912 3 1639 1867 1877 1856
3913 1 1673 1623 1635 1541
3914 1 1673 1623 1635 1860
3915 1 1674 1623 1635 1541
3916 1 1674 1623 1635 1860
3917 2 1635 1623 1673 1591
3918 2 1674 1623 1673 1591
3919 2 1635 1623 1674 1592
3920 2 1673 1623 1674 1592
3921 1 1679 1626 1638 381
3922 1 1679 1626 1638 1866
3923 1 1680 1626 1638 381
3924 1 1680 1626 1638 1866
3925 2 1638 1626 1679 1593
3926 2 1680 1626 1679 1593
3927 2 1638 1626 1680 1592
3928 2 1679 1626 1680 1592
3929 1 1681 1627 1639 1867
3930 1 1681 1627 1639 1656
3931 1 1682 1627 1639 1867
3932 1 1682 1627 1639 1656
3933 2 1639 1627 1681 1592
3934 2 1682 1627 1681 1592
3935 2 1639 1627 1682 1594
3936 2 1681 1627 1682 1594
3937 3 1623 1635 1541 1493
3938 3 1623 1635 1541 1554
3939 3 1860 1635 1541 1493
3940 3 1860 1635 1541 1554
3941 3 1623 1635 1860 1812
3942 3 1623 1635 1860 1871
3943 3 1541 1635 1860 1812
3944 3 1541 1635 1860 1871
3945 3 1626 1638 381 333
3946 3 1626 1638 381 395
3947 3 1866 1638 381 333
3948 3 1866 1638 381 395
3949 3 1626 1638 1866 1818
3950 3 1626 1638 1866 1880
3951 3 381 1638 1866 1818
3952 3 381 1638 1866 1880
3953 3 1812 1860 1871 1823
3954 3 1812 1860 1871 1747
3955 3 1635 1860 1871 1823
3956 3 1635 1860 1871 1747
3957 3 1818 1866 1880 1832
3958 3 1818 1866 1880 585
3959 3 1638 1866 1880 1832
3960 3 1638 1866 1880 585
3961 3 541 589 601 553
3962 3 541 589 601 582
3963 3 1848 589 601 553
3964 3 1848 589 601 582
3965 3 549 597 604 556
3966 3 549 597 604 477
3967 3 1852 597 604 556
3968 3 1852 597 604 477
3969 3 543 591 610 562
3970 3 543 591 610 480
3971 3 577 591 610 562
3972 3 577 591 610 480
3973 1 615 564 576 1225
3974 1 615 564 576 590
3975 1 616 564 576 1225
3976 1 616 564 576 590
3977 2 576 564 615 533
3978 2 616 564 615 533
3979 2 576 564 616 534
3980 2 615 564 616 534
3981 3 564 576 590 542
3982 3 564 576 590 602
3983 3 1225 576 590 542
3984 3 1225 576 590 602
3985 3 564 576 1225 1177
3986 3 564 576 1225 1237
3987 3 590 576 1225 1177
3988 3 590 576 1225 1237
3989 3 565 577 486 438
3990 3 565 577 486 503
3991 3 591 577 486 438
3992 3 591 577 486 503
3993 3 565 577 591 543
3994 3 565 577 591 610
3995 3 486 577 591 543
3996 3 486 577 591 610
3997 3 542 590 602 554
3998 3 542 590 602 1218
3999 3 576 590 602 554
4000 3 576 590 602 1218
4001 3 1177 1225 1237 1189
4002 3 1177 1225 1237 1218
4003 3 576 1225 1237 1189
4004 3 576 1225 1237 1218
4005 3 568 580 492 444
4006 3 568 580 492 497
4007 3 1233 580 492 444
4008 3 1233 580 492 497
4009 3 568 580 1233 1185
4010 3 568 580 1233 1240
4011 3 492 580 1233 1185
4012 3 492 580 1233 1240
4013 3 1185 1233 1240 1192
4014 3 1185 1233 1240 1113
4015 3 580 1233 1240 1192
4016 3 580 1233 1240 1113
4017 3 1201 1213 1122 1074
4018 3 1201 1213 1122 1139
4019 3 1227 1213 1122 1074
4020 3 1227 1213 1122 1139
4021 3 1201 1213 1227 1179
4022 3 1201 1213 1227 1246
4023 3 1122 1213 1227 1179
4024 3 1122 1213 1227 1246
4025 3 1179 1227 1246 1198
4026 3 1179 1227 1246 1116
4027 3 1213 1227 1246 1198
4028 3 1213 1227 1246 1116
4029 1 1251 1200 1212 1861
4030 1 1251 1200 1212 1226
4031 1 1252 1200 1212 1861
4032 1 1252 1200 1212 1226
4033 2 1212 1200 1251 1169
4034 2 1252 1200 1251 1169
4035 2 1212 1200 1252 1170
4036 2 1251 1200 1252 1170
4037 3 1200 1212 1226 1178
4038 3 1200 1212 1226 1238
4039 3 1861 1212 1226 1178
4040 3 1861 1212 1226 1238
4041 3 1200 1212 1861 1813
4042 3 1200 1212 1861 1873
4043 3 1226 1212 1861 1813
4044 3 1226 1212 1861 1873
4045 3 1204 1216 1128 1080
4046 3 1204 1216 1128 1133
4047 3 1869 1216 1128 1080
4048 3 1869 1216 1128 1133
4049 3 1204 1216 1869 1821
4050 3 1204 1216 1869 1876
4051 3 1128 1216 1869 1821
4052 3 1128 1216 1869 1876
4053 3 1178 1226 1238 1190
4054 3 1178 1226 1238 1854
4055 3 1212 1226 1238 1190
4056 3 1212 1226 1238 1854
4057 3 1813 1861 1873 1825
4058 3 1813 1861 1873 1854
4059 3 1212 1861 1873 1825
4060 3 1212 1861 1873 1854
4061 3 1821 1869 1876 1828
4062 3 1821 1869 1876 1749
4063 3 1216 1869 1876 1828
4064 3 1216 1869 1876 1749
4065 1 1887 1836 1848 589
4066 1 1887 1836 1848 1862
4067 1 1888 1836 1848 589
4068 1 1888 1836 1848 1862
4069 2 1848 1836 1887 1805
4070 2 1888 1836 1887 1805
4071 2 1848 1836 1888 1806
4072 2 1887 1836 1888 1806
4073 3 1836 1848 589 541
4074 3 1836 1848 589 601
4075 3 1862 1848 589 541
4076 3 1862 1848 589 601
4077 3 1836 1848 1862 1814
4078 3 1836 1848 1862 1874
4079 3 589 1848 1862 1814
4080 3 589 1848 1862 1874
4081 3 1837 1849 1758 1710
4082 3 1837 1849 1758 1775
4083 3 1863 1849 1758 1710
4084 3 1863 1849 1758 1775
4085 3 1837 1849 1863 1815
4086 3 1837 1849 1863 1882
4087 3 1758 1849 1863 1815
4088 3 1758 1849 1863 1882
4089 3 1814 1862 1874 1826
4090 3 1814 1862 1874 582
4091 3 1848 1862 1874 1826
4092 3 1848 1862 1874 582
4093 3 1815 1863 1882 1834
4094 3 1815 1863 1882 1752
4095 3 1849 1863 1882 1834
4096 3 1849 1863 1882 1752
4097 3 1840 1852 597 549
4098 3 1840 1852 597 604
4099 3 1764 1852 597 549
4100 3 1764 1852 597 604
4101 3 1840 1852 1764 1716
4102 3 1840 1852 1764 1769
4103 3 597 1852 1764 1716
4104 3 597 1852 1764 1769
4105 3 545 593 607 559
4106 3 545 593 607 161
4107 3 1850 593 607 559
4108 3 1850 593 607 161
4109 3 548 596 606 558
4110 3 548 596 606 160
4111 3 579 596 606 558
4112 3 579 596 606 160
4113 1 613 563 575 481
4114 1 613 563 575 164
4115 1 614 563 575 481
4116 1 614 563 575 164
4117 2 575 563 613 531
4118 2 614 563 613 531
4119 2 575 563 614 532
4120 2 613 563 614 532
4121 1 617 565 577 591
4122 1 617 565 577 486
4123 1 618 565 577 591
4124 1 618 565 577 486
4125 2 577 565 617 534
4126 2 618 565 617 534
4127 2 577 565 618 531
4128 2 617 565 618 531
4129 1 619 566 578 1229
4130 1 619 566 578 170
4131 1 620 566 578 1229
4132 1 620 566 578 170
4133 2 578 566 619 533
4134 2 620 566 619 533
4135 2 578 566 620 532
4136 2 619 566 620 532
4137 1 621 567 579 171
4138 1 621 567 579 596
4139 1 622 567 579 171
4140 1 622 567 579 596
4141 2 579 567 621 532
4142 2 622 567 621 532
4143 2 579 567 622 534
4144 2 621 567 622 534
4145 1 623 568 580 1233
4146 1 623 568 580 492
4147 1 624 568 580 1233
4148 1 624 568 580 492
4149 2 580 568 623 533
4150 2 624 568 623 533
4151 2 580 568 624 531
4152 2 623 568 624 531
4153 3 563 575 164 116
4154 3 563 575 164 175
4155 3 481 575 164 116
4156 3 481 575 164 175
4157 3 563 575 481 433
4158 3 563 575 481 494
4159 3 164 575 481 433
4160 3 164 575 481 494
4161 3 567 579 171 123
4162 3 567 579 171 181
4163 3 596 579 171 123
4164 3 596 579 171 181
4165 3 567 579 596 548
4166 3 567 579 596 606
4167 3 171 579 596 548
4168 3 171 579 596 606
4169 3 566 578 170 122
4170 3 566 578 170 184
4171 3 1229 578 170 122
4172 3 1229 578 170 184
4173 3 566 578 1229 1181
4174 3 566 578 1229 1243
4175 3 170 578 1229 1181
4176 3 170 578 1229 1243
4177 3 1181 1229 1243 1195
4178 3 1181 1229 1243 797
4179 3 578 1229 1243 1195
4180 3 578 1229 1243 797
4181 1 1253 1201 1213 1227
4182 1 1253 1201 1213 1122
4183 1 1254 1201 1213 1227
4184 1 1254 1201 1213 1122
4185 2 1213 1201 1253 1170
4186 2 1254 1201 1253 1170
4187 2 1213 1201 1254 1167
4188 2 1253 1201 1254 1167
4189 1 1257 1203 1215 807
4190 1 1257 1203 1215 1232
4191 1 1258 1203 1215 807
4192 1 1258 1203 1215 1232
4193 2 1215 1203 1257 1168
4194 2 1258 1203 1257 1168
4195 2 1215 1203 1258 1170
4196 2 1257 1203 1258 1170
4197 3 1203 1215 807 759
4198 3 1203 1215 807 817
4199 3 1232 1215 807 759
4200 3 1232 1215 807 817
4201 3 1203 1215 1232 1184
4202 3 1203 1215 1232 1242
4203 3 807 1215 1232 1184
4204 3 807 1215 1232 1242
4205 3 1184 1232 1242 1194
4206 3 1184 1232 1242 796
4207 3 1215 1232 1242 1194
4208 3 1215 1232 1242 796
4209 1 1249 1199 1211 1117
4210 1 1249 1199 1211 800
4211 1 1250 1199 1211 1117
4212 1 1250 1199 1211 800
4213 2 1211 1199 1249 1167
4214 2 1250 1199 1249 1167
4215 2 1211 1199 1250 1168
4216 2 1249 1199 1250 1168
4217 1 1255 1202 1214 1865
4218 1 1255 1202 1214 806
4219 1 1256 1202 1214 1865
4220 1 1256 1202 1214 806
4221 2 1214 1202 1255 1169
4222 2 1256 1202 1255 1169
4223 2 1214 1202 1256 1168
4224 2 1255 1202 1256 1168
4225 1 1259 1204 1216 1869
4226 1 1259 1204 1216 1128
4227 1 1260 1204 1216 1869
4228 1 1260 1204 1216 1128
4229 2 1216 1204 1259 1169
4230 2 1260 1204 1259 1169
4231 2 1216 1204 1260 1167
4232 2 1259 1204 1260 1167
4233 3 1199 1211 800 752
4234 3 1199 1211 800 811
4235 3 1117 1211 800 752
4236 3 1117 1211 800 811
4237 3 1199 1211 1117 1069
4238 3 1199 1211 1117 1130
4239 3 800 1211 1117 1069
4240 3 800 1211 1117 1130
4241 3 1202 1214 806 758
4242 3 1202 1214 806 820
4243 3 1865 1214 806 758
4244 3 1865 1214 806 820
4245 3 1202 1214 1865 1817
4246 3 1202 1214 1865 1879
4247 3 806 1214 1865 1817
4248 3 806 1214 1865 1879
4249 3 1817 1865 1879 1831
4250 3 1817 1865 1879 1433
4251 3 1214 1865 1879 1831
4252 3 1214 1865 1879 1433
4253 1 1885 1835 1847 1753
4254 1 1885 1835 1847 1436
4255 1 1886 1835 1847 1753
4256 1 1886 1835 1847 1436
4257 2 1847 1835 1885 1803
4258 2 1886 1835 1885 1803
4259 2 1847 1835 1886 1804
4260 2 1885 1835 1886 1804
4261 1 1889 1837 1849 1863
4262 1 1889 1837 1849 1758
4263 1 1890 1837 1849 1863
4264 1 1890 1837 1849 1758
4265 2 1849 1837 1889 1806
4266 2 1890 1837 1889 1806
4267 2 1849 1837 1890 1803
4268 2 1889 1837 1890 1803
4269 1 1893 1839 1851 1443
4270 1 1893 1839 1851 1868
4271 1 1894 1839 1851 1443
4272 1 1894 1839 1851 1868
4273 2 1851 1839 1893 1804
4274 2 1894 1839 1893 1804
4275 2 1851 1839 1894 1806
4276 2 1893 1839 1894 1806
4277 3 1835 1847 1436 1388
4278 3 1835 1847 1436 1447
4279 3 1753 1847 1436 1388
4280 3 1753 1847 1436 1447
4281 3 1835 1847 1753 1705
4282 3 1835 1847 1753 1766
4283 3 1436 1847 1753 1705
4284 3 1436 1847 1753 1766
4285 3 1839 1851 1443 1395
4286 3 1839 1851 1443 1453
4287 3 1868 1851 1443 1395
4288 3 1868 1851 1443 1453
4289 3 1839 1851 1868 1820
4290 3 1839 1851 1868 1878
4291 3 1443 1851 1868 1820
4292 3 1443 1851 1868 1878
4293 3 1820 1868 1878 1830
4294 3 1820 1868 1878 1432
4295 3 1851 1868 1878 1830
4296 3 1851 1868 1878 1432
4297 1 1891 1838 1850 593
4298 1 1891 1838 1850 1442
4299 1 1892 1838 1850 593
4300 1 1892 1838 1850 1442
4301 2 1850 1838 1891 1805
4302 2 1892 1838 1891 1805
4303 2 1850 1838 1892 1804
4304 2 1891 1838 1892 1804
4305 1 1895 1840 1852 597
4306 1 1895 1840 1852 1764
4307 1 1896 1840 1852 597
4308 1 1896 1840 1852 1764
4309 2 1852 1840 1895 1805
4310 2 1896 1840 1895 1805
4311 2 1852 1840 1896 1803
4312 2 1895 1840 1896 1803
4313 3 1838 1850 593 545
4314 3 1838 1850 593 607
4315 3 1442 1850 593 545
4316 3 1442 1850 593 607
4317 3 1838 1850 1442 1394
4318 3 1838 1850 1442 1456
4319 3 593 1850 1442 1394
4320 3 593 1850 1442 1456

Impropers

1 1 53 41 1345 180
2 1 55 43 501 1350
3 1 43 55 103 104
4 1 501 55 453 487
5 1 1350 55 1302 1336
6 1 41 99 53 100
7 1 43 104 55 103
8 1 75 27 54 65
9 1 51 39 175 494
10 1 54 42 75 500
11 1 56 44 79 186
12 1 39 51 95 96
13 1 175 51 127 164
14 1 494 51 446 481
15 1 42 54 101 102
16 1 75 54 27 65
17 1 500 54 452 490
18 1 54 75 42 500
19 1 65 75 17 473
20 1 39 95 51 96
21 1 39 96 51 95
22 1 41 100 53 99
23 1 42 101 54 102
24 1 42 102 54 101
25 1 43 103 55 104
26 1 44 105 56 106
27 1 44 106 56 105
28 1 78 30 691 64
29 1 64 78 16 472
30 1 691 78 679 1137
31 1 687 675 811 1130
32 1 689 677 73 816
33 1 691 679 1137 78
34 1 675 687 731 732
35 1 811 687 763 800
36 1 1130 687 1082 1117
37 1 78 691 30 64
38 1 679 691 739 740
39 1 1137 691 1089 1123
40 1 675 731 687 732
41 1 675 732 687 731
42 1 677 735 689 736
43 1 677 736 689 735
44 1 679 739 691 740
45 1 679 740 691 739
46 1 711 663 690 701
47 1 690 678 711 1136
48 1 692 680 715 822
49 1 678 690 737 738
50 1 711 690 663 701
51 1 1136 690 1088 1126
52 1 690 711 678 1136
53 1 701 711 653 1109
54 1 678 737 690 738
55 1 678 738 690 737
56 1 680 741 692 742
57 1 680 742 692 741
58 1 714 666 1327 700
59 1 700 714 652 1108
60 1 1327 714 1315 1773
61 1 714 1327 666 700
62 1 1315 1327 1375 1376
63 1 1773 1327 1725 1759
64 1 1313 1371 1325 1372
65 1 1315 1376 1327 1375
66 1 1323 1311 1447 1766
67 1 1325 1313 709 1452
68 1 1326 1314 1347 1772
69 1 1327 1315 1773 714
70 1 1328 1316 1351 1458
71 1 1311 1323 1367 1368
72 1 1447 1323 1399 1436
73 1 1766 1323 1718 1753
74 1 1314 1326 1373 1374
75 1 1347 1326 1299 1337
76 1 1772 1326 1724 1762
77 1 1311 1367 1323 1368
78 1 1311 1368 1323 1367
79 1 1313 1372 1325 1371
80 1 1314 1373 1326 1374
81 1 1314 1374 1326 1373
82 1 1315 1375 1327 1376
83 1 1316 1377 1328 1378
84 1 1316 1378 1328 1377
85 1 1347 1299 1326 1337
86 1 1326 1347 1314 1772
87 1 1337 1347 1289 1745
88 1 1350 1302 55 1336
89 1 55 1350 43 501
90 1 1336 1350 1288 1744
91 1 41 53 99 100
92 1 180 53 132 173
93 1 1345 53 1297 1340
94 1 71 23 52 59
95 1 79 31 56 62
96 1 52 40 71 1344
97 1 40 52 97 98
98 1 71 52 23 59
99 1 1344 52 1296 1332
100 1 44 56 105 106
101 1 79 56 31 62
102 1 186 56 138 167
103 1 52 71 40 1344
104 1 59 71 11 1318
105 1 56 79 44 186
106 1 62 79 14 153
107 1 40 97 52 98
108 1 40 98 52 97
109 1 57 9 151 70
110 1 62 14 153 79
111 1 68 20 156 73
112 1 79 62 31 56
113 1 153 62 141 167
114 1 72 24 688 60
115 1 73 25 689 68
116 1 73 68 25 689
117 1 156 68 144 809
118 1 60 72 12 46
119 1 688 72 676 707
120 1 68 73 20 156
121 1 689 73 677 816
122 1 688 676 707 72
123 1 72 688 24 60
124 1 676 688 733 734
125 1 707 688 659 695
126 1 73 689 25 68
127 1 677 689 735 736
128 1 816 689 768 809
129 1 688 707 676 72
130 1 695 707 647 46
131 1 676 733 688 734
132 1 676 734 688 733
133 1 698 650 789 715
134 1 707 659 688 695
135 1 715 667 692 698
136 1 680 692 741 742
137 1 715 692 667 698
138 1 822 692 774 803
139 1 715 698 667 692
140 1 789 698 777 803
141 1 692 715 680 822
142 1 698 715 650 789
143 1 693 645 787 706
144 1 704 656 792 709
145 1 709 661 1325 704
146 1 709 704 661 1325
147 1 792 704 780 1445
148 1 704 709 656 792
149 1 1325 709 1313 1452
150 1 709 1325 661 704
151 1 1313 1325 1371 1372
152 1 1452 1325 1404 1445
153 1 708 660 1324 696
154 1 696 708 648 682
155 1 1324 708 1312 1343
156 1 1343 1295 1324 1331
157 1 1324 1312 1343 708
158 1 708 1324 660 696
159 1 1312 1324 1369 1370
160 1 1343 1324 1295 1331
161 1 1316 1328 1377 1378
162 1 1351 1328 1303 1334
163 1 1458 1328 1410 1439
164 1 1324 1343 1312 708
165 1 1331 1343 1283 682
166 1 1312 1369 1324 1370
167 1 1312 1370 1324 1369
168 1 1329 1281 1423 1342
169 1 1334 1286 1425 1351
170 1 1351 1303 1328 1334
171 1 1351 1334 1303 1328
172 1 1425 1334 1413 1439
173 1 1328 1351 1316 1458
174 1 1334 1351 1286 1425
175 1 1340 1292 1428 1345
176 1 1344 1296 52 1332
177 1 1345 1297 53 1340
178 1 1345 1340 1297 53
179 1 1428 1340 1416 173
180 1 52 1344 40 71
181 1 1332 1344 1284 1318
182 1 53 1345 41 180
183 1 1340 1345 1292 1428
184 1 70 22 263 57
185 1 76 28 266 66
186 1 77 29 267 63
187 1 70 57 22 263
188 1 151 57 139 376
189 1 57 70 9 151
190 1 263 70 251 387
191 1 63 77 15 1320
192 1 267 77 255 1562
193 1 263 251 387 70
194 1 266 254 287 76
195 1 267 255 77 1562
196 1 70 263 22 57
197 1 251 263 307 308
198 1 387 263 339 376
199 1 77 267 29 63
200 1 255 267 315 316
201 1 1562 267 1514 1548
202 1 251 307 263 308
203 1 251 308 263 307
204 1 254 313 266 314
205 1 254 314 266 313
206 1 255 315 267 316
207 1 255 316 267 315
208 1 66 76 18 49
209 1 266 76 254 287
210 1 287 239 266 277
211 1 76 266 28 66
212 1 254 266 313 314
213 1 287 266 239 277
214 1 266 287 254 76
215 1 277 287 229 49
216 1 290 242 903 276
217 1 276 290 228 48
218 1 903 290 891 713
219 1 713 665 903 699
220 1 699 713 651 48
221 1 903 713 891 290
222 1 903 891 713 290
223 1 290 903 242 276
224 1 713 903 665 699
225 1 891 903 951 952
226 1 891 951 903 952
227 1 891 952 903 951
228 1 706 658 899 693
229 1 712 664 902 702
230 1 706 693 658 899
231 1 787 693 775 1012
232 1 693 706 645 787
233 1 899 706 887 1023
234 1 702 712 654 685
235 1 902 712 890 923
236 1 923 875 902 913
237 1 899 887 1023 706
238 1 902 890 923 712
239 1 706 899 658 693
240 1 887 899 943 944
241 1 1023 899 975 1012
242 1 712 902 664 702
243 1 890 902 949 950
244 1 923 902 875 913
245 1 902 923 890 712
246 1 913 923 865 685
247 1 887 943 899 944
248 1 887 944 899 943
249 1 890 949 902 950
250 1 890 950 902 949
251 1 926 878 1539 912
252 1 912 926 864 684
253 1 1539 926 1527 1349
254 1 1342 1294 1535 1329
255 1 1349 1301 1539 1335
256 1 1342 1329 1294 1535
257 1 1423 1329 1411 1648
258 1 1329 1342 1281 1423
259 1 1535 1342 1523 1659
260 1 1335 1349 1287 684
261 1 1539 1349 1527 926
262 1 1535 1523 1659 1342
263 1 1538 1526 1559 1348
264 1 1539 1527 1349 926
265 1 1342 1535 1294 1329
266 1 1523 1535 1579 1580
267 1 1659 1535 1611 1648
268 1 926 1539 878 912
269 1 1349 1539 1301 1335
270 1 1527 1539 1587 1588
271 1 1523 1579 1535 1580
272 1 1523 1580 1535 1579
273 1 1526 1586 1538 1585
274 1 1527 1587 1539 1588
275 1 1527 1588 1539 1587
276 1 1348 1300 1538 1338
277 1 1338 1348 1290 1321
278 1 1538 1348 1526 1559
279 1 1559 1511 1538 1549
280 1 1348 1538 1300 1338
281 1 1526 1538 1585 1586
282 1 1559 1538 1511 1549
283 1 1538 1559 1526 1348
284 1 1549 1559 1501 1321
285 1 1526 1585 1538 1586
286 1 1562 1514 267 1548
287 1 267 1562 255 77
288 1 1548 1562 1500 1320
289 1 283 235 264 271
290 1 264 252 283 1556
291 1 265 253 1557 392
292 1 268 256 291 398
293 1 252 264 309 310
294 1 283 264 235 271
295 1 1556 264 1508 1544
296 1 253 265 311 312
297 1 392 265 344 385
298 1 1557 265 1509 1552
299 1 264 283 252 1556
300 1 271 283 223 1530
301 1 252 309 264 310
302 1 252 310 264 309
303 1 253 311 265 312
304 1 253 312 265 311
305 1 256 317 268 318
306 1 256 318 268 317
307 1 274 226 365 291
308 1 291 243 268 274
309 1 256 268 317 318
310 1 291 268 243 274
311 1 398 268 350 379
312 1 291 274 243 268
313 1 365 274 353 379
314 1 268 291 256 398
315 1 274 291 226 365
316 1 280 232 368 285
317 1 284 236 900 272
318 1 285 237 901 280
319 1 285 280 237 901
320 1 368 280 356 1021
321 1 272 284 224 258
322 1 900 284 888 919
323 1 280 285 232 368
324 1 901 285 889 1028
325 1 901 889 285 1028
326 1 285 901 237 280
327 1 889 901 947 948
328 1 1028 901 980 1021
329 1 888 946 900 945
330 1 889 947 901 948
331 1 889 948 901 947
332 1 910 862 1001 927
333 1 919 871 900 907
334 1 927 879 904 910
335 1 900 888 919 284
336 1 904 892 927 1034
337 1 284 900 236 272
338 1 888 900 945 946
339 1 919 900 871 907
340 1 892 904 953 954
341 1 927 904 879 910
342 1 1034 904 986 1015
343 1 927 910 879 904
344 1 1001 910 989 1015
345 1 900 919 888 284
346 1 907 919 859 258
347 1 904 927 892 1034
348 1 910 927 862 1001
349 1 888 945 900 946
350 1 892 953 904 954
351 1 892 954 904 953
352 1 916 868 1004 921
353 1 921 873 1537 916
354 1 921 916 873 1537
355 1 1004 916 992 1657
356 1 916 921 868 1004
357 1 1537 921 1525 1664
358 1 920 872 1536 908
359 1 908 920 860 894
360 1 1536 920 1524 1555
361 1 1555 1507 1536 1543
362 1 1536 1524 1555 920
363 1 1537 1525 921 1664
364 1 1540 1528 1563 1670
365 1 920 1536 872 908
366 1 1524 1536 1581 1582
367 1 1555 1536 1507 1543
368 1 921 1537 873 916
369 1 1525 1537 1583 1584
370 1 1664 1537 1616 1657
371 1 1536 1555 1524 920
372 1 1543 1555 1495 894
373 1 1524 1581 1536 1582
374 1 1524 1582 1536 1581
375 1 1525 1583 1537 1584
376 1 1525 1584 1537 1583
377 1 1528 1590 1540 1589
378 1 1546 1498 1637 1563
379 1 1563 1515 1540 1546
380 1 1528 1540 1589 1590
381 1 1563 1540 1515 1546
382 1 1670 1540 1622 1651
383 1 1563 1546 1515 1540
384 1 1637 1546 1625 1651
385 1 1540 1563 1528 1670
386 1 1546 1563 1498 1637
387 1 1528 1589 1540 1590
388 1 1552 1504 1640 1557
389 1 1556 1508 264 1544
390 1 1557 1509 265 1552
391 1 1557 1552 1509 265
392 1 1640 1552 1628 385
393 1 265 1557 253 392
394 1 1552 1557 1504 1640
395 1 264 1556 252 283
396 1 1544 1556 1496 1530
397 1 269 221 363 282
398 1 282 234 475 269
399 1 289 241 479 275
400 1 282 269 234 475
401 1 363 269 351 588
402 1 269 282 221 363
403 1 475 282 463 599
404 1 275 289 227 1532
405 1 479 289 467 1774
406 1 475 463 599 282
407 1 479 467 289 1774
408 1 282 475 234 269
409 1 463 475 519 520
410 1 599 475 551 588
411 1 289 479 241 275
412 1 467 479 527 528
413 1 1774 479 1726 1760
414 1 463 519 475 520
415 1 463 520 475 519
416 1 467 527 479 528
417 1 288 240 478 278
418 1 278 288 230 261
419 1 478 288 466 499
420 1 478 466 499 288
421 1 288 478 240 278
422 1 466 478 525 526
423 1 499 478 451 489
424 1 478 499 466 288
425 1 489 499 441 261
426 1 466 526 478 525
427 1 488 502 440 260
428 1 1115 502 1103 925
429 1 925 877 1115 911
430 1 911 925 863 260
431 1 1115 925 1103 502
432 1 502 1115 454 488
433 1 925 1115 877 911
434 1 1103 1115 1163 1164
435 1 905 857 999 918
436 1 918 870 1111 905
437 1 924 876 1114 914
438 1 918 905 870 1111
439 1 999 905 987 1224
440 1 905 918 857 999
441 1 1111 918 1099 1235
442 1 914 924 866 897
443 1 1114 924 1102 1135
444 1 1111 1099 1235 918
445 1 1114 1102 1135 924
446 1 1115 1103 925 502
447 1 918 1111 870 905
448 1 1099 1111 1155 1156
449 1 1235 1111 1187 1224
450 1 924 1114 876 914
451 1 1102 1114 1161 1162
452 1 1135 1114 1087 1125
453 1 1099 1155 1111 1156
454 1 1099 1156 1111 1155
455 1 1102 1162 1114 1161
456 1 1103 1163 1115 1164
457 1 1114 1135 1102 924
458 1 1125 1135 1077 897
459 1 1124 1138 1076 896
460 1 1751 1138 1739 1561
461 1 1541 1493 1635 1554
462 1 1554 1506 1747 1541
463 1 1561 1513 1751 1547
464 1 1554 1541 1506 1747
465 1 1635 1541 1623 1860
466 1 1541 1554 1493 1635
467 1 1747 1554 1735 1871
468 1 1547 1561 1499 896
469 1 1751 1561 1739 1138
470 1 1747 1735 1871 1554
471 1 1751 1739 1561 1138
472 1 1554 1747 1506 1541
473 1 1735 1747 1791 1792
474 1 1871 1747 1823 1860
475 1 1138 1751 1090 1124
476 1 1561 1751 1513 1547
477 1 1739 1751 1799 1800
478 1 1735 1791 1747 1792
479 1 1735 1792 1747 1791
480 1 1739 1799 1751 1800
481 1 1560 1512 1750 1550
482 1 1550 1560 1502 1533
483 1 1750 1560 1738 1771
484 1 1750 1738 1771 1560
485 1 1560 1750 1512 1550
486 1 1738 1750 1797 1798
487 1 1771 1750 1723 1761
488 1 1750 1771 1738 1560
489 1 1761 1771 1713 1533
490 1 1738 1798 1750 1797
491 1 479 1774 467 289
492 1 1760 1774 1712 1532
493 1 476 464 495 1768
494 1 477 465 1769 604
495 1 464 476 521 522
496 1 495 476 447 483
497 1 1768 476 1720 1756
498 1 465 477 523 524
499 1 604 477 556 597
500 1 1769 477 1721 1764
501 1 476 495 464 1768
502 1 483 495 435 1742
503 1 464 521 476 522
504 1 464 522 476 521
505 1 465 523 477 524
506 1 465 524 477 523
507 1 467 528 479 527
508 1 486 438 577 503
509 1 495 447 476 483
510 1 499 451 478 489
511 1 503 455 480 486
512 1 480 468 503 610
513 1 468 480 529 530
514 1 503 480 455 486
515 1 610 480 562 591
516 1 503 486 455 480
517 1 577 486 565 591
518 1 480 503 468 610
519 1 486 503 438 577
520 1 466 525 478 526
521 1 468 529 480 530
522 1 468 530 480 529
523 1 492 444 580 497
524 1 497 449 1113 492
525 1 502 454 1115 488
526 1 497 492 449 1113
527 1 580 492 568 1233
528 1 492 497 444 580
529 1 1113 497 1101 1240
530 1 497 1113 449 492
531 1 1101 1113 1159 1160
532 1 1240 1113 1192 1233
533 1 1101 1159 1113 1160
534 1 1103 1164 1115 1163
535 1 496 448 1112 484
536 1 484 496 436 470
537 1 1112 496 1100 1131
538 1 1131 1083 1112 1119
539 1 1112 1100 1131 496
540 1 1113 1101 497 1240
541 1 1116 1104 1139 1246
542 1 496 1112 448 484
543 1 1100 1112 1157 1158
544 1 1131 1112 1083 1119
545 1 1104 1116 1165 1166
546 1 1139 1116 1091 1122
547 1 1246 1116 1198 1227
548 1 1112 1131 1100 496
549 1 1119 1131 1071 470
550 1 1100 1157 1112 1158
551 1 1100 1158 1112 1157
552 1 1101 1160 1113 1159
553 1 1102 1161 1114 1162
554 1 1104 1165 1116 1166
555 1 1104 1166 1116 1165
556 1 1122 1074 1213 1139
557 1 1135 1087 1114 1125
558 1 1139 1091 1116 1122
559 1 1139 1122 1091 1116
560 1 1213 1122 1201 1227
561 1 1116 1139 1104 1246
562 1 1122 1139 1074 1213
563 1 1128 1080 1216 1133
564 1 1132 1084 1748 1120
565 1 1133 1085 1749 1128
566 1 1138 1090 1751 1124
567 1 1133 1128 1085 1749
568 1 1216 1128 1204 1869
569 1 1120 1132 1072 1106
570 1 1748 1132 1736 1767
571 1 1128 1133 1080 1216
572 1 1749 1133 1737 1876
573 1 1748 1736 1767 1132
574 1 1749 1737 1133 1876
575 1 1132 1748 1084 1120
576 1 1736 1748 1793 1794
577 1 1767 1748 1719 1755
578 1 1133 1749 1085 1128
579 1 1737 1749 1795 1796
580 1 1876 1749 1828 1869
581 1 1736 1794 1748 1793
582 1 1737 1795 1749 1796
583 1 1737 1796 1749 1795
584 1 1739 1800 1751 1799
585 1 1758 1710 1849 1775
586 1 1767 1719 1748 1755
587 1 1771 1723 1750 1761
588 1 1775 1727 1752 1758
589 1 1752 1740 1775 1882
590 1 1740 1752 1801 1802
591 1 1775 1752 1727 1758
592 1 1882 1752 1834 1863
593 1 1775 1758 1727 1752
594 1 1849 1758 1837 1863
595 1 1748 1767 1736 1132
596 1 1755 1767 1707 1106
597 1 1752 1775 1740 1882
598 1 1758 1775 1710 1849
599 1 1736 1793 1748 1794
600 1 1738 1797 1750 1798
601 1 1740 1801 1752 1802
602 1 1740 1802 1752 1801
603 1 1764 1716 1852 1769
604 1 1769 1721 477 1764
605 1 1774 1726 479 1760
606 1 1769 1764 1721 477
607 1 1852 1764 1840 597
608 1 477 1769 465 604
609 1 1764 1769 1716 1852
610 1 1768 1720 476 1756
611 1 476 1768 464 495
612 1 1756 1768 1708 1742
613 1 501 453 55 487
614 1 55 501 43 1350
615 1 487 501 439 1744
616 1 481 433 575 494
617 1 494 446 51 481
618 1 500 452 54 490
619 1 494 481 446 51
620 1 575 481 563 164
621 1 51 494 39 175
622 1 481 494 433 575
623 1 54 500 42 75
624 1 490 500 442 473
625 1 1117 1069 1211 1130
626 1 1130 1082 687 1117
627 1 1137 1089 691 1123
628 1 1130 1117 1082 687
629 1 1211 1117 1199 800
630 1 687 1130 675 811
631 1 1117 1130 1069 1211
632 1 691 1137 679 78
633 1 1123 1137 1075 472
634 1 1136 1088 690 1126
635 1 690 1136 678 711
636 1 1126 1136 1078 1109
637 1 1773 1725 1327 1759
638 1 1327 1773 1315 714
639 1 1759 1773 1711 1108
640 1 1753 1705 1847 1766
641 1 1766 1718 1323 1753
642 1 1772 1724 1326 1762
643 1 1766 1753 1718 1323
644 1 1847 1753 1835 1436
645 1 1323 1766 1311 1447
646 1 1753 1766 1705 1847
647 1 1326 1772 1314 1347
648 1 1762 1772 1714 1745
649 1 58 10 469 69
650 1 64 16 472 78
651 1 65 17 473 75
652 1 69 58 21 157
653 1 469 58 457 587
654 1 75 65 27 54
655 1 473 65 461 490
656 1 58 69 10 469
657 1 157 69 145 600
658 1 78 64 30 691
659 1 472 64 460 1123
660 1 701 653 1109 711
661 1 711 701 663 690
662 1 1109 701 1097 1126
663 1 694 646 1105 705
664 1 700 652 1108 714
665 1 705 694 657 793
666 1 1105 694 1093 1223
667 1 714 700 666 1327
668 1 1108 700 1096 1759
669 1 694 705 646 1105
670 1 793 705 781 1236
671 1 1330 1282 1741 1341
672 1 1337 1289 1745 1347
673 1 1341 1330 1293 1429
674 1 1741 1330 1729 1859
675 1 1347 1337 1299 1326
676 1 1745 1337 1733 1762
677 1 1330 1341 1282 1741
678 1 1429 1341 1417 1872
679 1 1336 1288 1744 1350
680 1 1350 1336 1302 55
681 1 1744 1336 1732 487
682 1 59 11 1318 71
683 1 67 19 1322 74
684 1 71 59 23 52
685 1 1318 59 1306 1332
686 1 74 67 26 159
687 1 1322 67 1310 1446
688 1 69 21 157 58
689 1 74 26 159 67
690 1 80 32 162 61
691 1 67 74 19 1322
692 1 159 74 147 1451
693 1 60 12 46 72
694 1 61 13 47 80
695 1 46 34 695 60
696 1 47 35 61 168
697 1 34 46 85 86
698 1 60 46 12 72
699 1 695 46 647 707
700 1 35 47 87 88
701 1 61 47 13 80
702 1 168 47 120 185
703 1 46 60 34 695
704 1 72 60 24 688
705 1 47 61 35 168
706 1 80 61 32 162
707 1 61 80 13 47
708 1 162 80 150 185
709 1 34 85 46 86
710 1 34 86 46 85
711 1 35 87 47 88
712 1 46 695 34 60
713 1 707 695 659 688
714 1 50 38 703 174
715 1 38 50 93 94
716 1 174 50 126 179
717 1 703 50 655 710
718 1 38 93 50 94
719 1 695 647 46 707
720 1 703 655 50 710
721 1 710 662 795 703
722 1 50 703 38 174
723 1 710 703 662 795
724 1 703 710 655 50
725 1 795 710 783 179
726 1 697 649 683 716
727 1 705 657 793 694
728 1 716 668 798 697
729 1 671 683 723 724
730 1 697 683 649 716
731 1 804 683 756 821
732 1 683 697 671 804
733 1 716 697 668 798
734 1 697 716 649 683
735 1 798 716 786 821
736 1 671 723 683 724
737 1 696 648 682 708
738 1 682 670 1331 696
739 1 683 671 697 804
740 1 686 674 1339 810
741 1 670 682 721 722
742 1 696 682 648 708
743 1 1331 682 1283 1343
744 1 674 686 729 730
745 1 810 686 762 815
746 1 1339 686 1291 1346
747 1 682 696 670 1331
748 1 708 696 660 1324
749 1 670 721 682 722
750 1 670 722 682 721
751 1 674 729 686 730
752 1 1331 1283 682 1343
753 1 682 1331 670 696
754 1 1343 1331 1295 1324
755 1 1339 1291 686 1346
756 1 1341 1293 1429 1330
757 1 1346 1298 1431 1339
758 1 686 1339 674 810
759 1 1346 1339 1298 1431
760 1 1339 1346 1291 686
761 1 1431 1346 1419 815
762 1 1332 1284 1318 1344
763 1 1333 1285 1319 1352
764 1 1352 1304 1434 1333
765 1 1318 1306 59 1332
766 1 1319 1307 1333 1440
767 1 59 1318 11 71
768 1 1306 1318 1357 1358
769 1 1332 1318 1284 1344
770 1 1307 1319 1359 1360
771 1 1333 1319 1285 1352
772 1 1440 1319 1392 1457
773 1 1318 1332 1306 59
774 1 1344 1332 1296 52
775 1 1319 1333 1307 1440
776 1 1352 1333 1304 1434
777 1 1333 1352 1285 1319
778 1 1434 1352 1422 1457
779 1 1306 1358 1318 1357
780 1 1307 1359 1319 1360
781 1 1322 1310 67 1446
782 1 67 1322 19 74
783 1 1310 1322 1365 1366
784 1 1446 1322 1398 1451
785 1 1306 1357 1318 1358
786 1 1310 1365 1322 1366
787 1 63 15 1320 77
788 1 77 63 29 267
789 1 1320 63 1308 1548
790 1 66 18 49 76
791 1 45 33 163 270
792 1 49 37 277 66
793 1 33 45 83 84
794 1 163 45 115 176
795 1 270 45 222 281
796 1 37 49 91 92
797 1 66 49 18 76
798 1 277 49 229 287
799 1 49 66 37 277
800 1 76 66 28 266
801 1 33 83 45 84
802 1 33 84 45 83
803 1 35 88 47 87
804 1 37 91 49 92
805 1 37 92 49 91
806 1 270 222 45 281
807 1 277 229 49 287
808 1 45 270 33 163
809 1 281 270 233 369
810 1 49 277 37 66
811 1 287 277 239 266
812 1 48 36 699 276
813 1 36 48 89 90
814 1 276 48 228 290
815 1 699 48 651 713
816 1 36 89 48 90
817 1 36 90 48 89
818 1 38 94 50 93
819 1 276 228 48 290
820 1 48 276 36 699
821 1 290 276 242 903
822 1 699 651 48 713
823 1 48 699 36 276
824 1 713 699 665 903
825 1 702 654 685 712
826 1 673 685 727 728
827 1 702 685 654 712
828 1 913 685 865 923
829 1 685 702 673 913
830 1 712 702 664 902
831 1 673 728 685 727
832 1 913 865 685 923
833 1 685 913 673 702
834 1 923 913 875 902
835 1 681 669 799 906
836 1 684 672 1335 912
837 1 685 673 913 702
838 1 669 681 719 720
839 1 799 681 751 812
840 1 906 681 858 917
841 1 672 684 725 726
842 1 912 684 864 926
843 1 1335 684 1287 1349
844 1 669 719 681 720
845 1 669 720 681 719
846 1 671 724 683 723
847 1 672 725 684 726
848 1 672 726 684 725
849 1 673 727 685 728
850 1 674 730 686 729
851 1 906 858 681 917
852 1 912 864 684 926
853 1 681 906 669 799
854 1 917 906 869 1005
855 1 684 912 672 1335
856 1 926 912 878 1539
857 1 1335 1287 684 1349
858 1 684 1335 672 912
859 1 1349 1335 1301 1539
860 1 1338 1290 1321 1348
861 1 1317 1305 1435 1542
862 1 1321 1309 1549 1338
863 1 1305 1317 1355 1356
864 1 1435 1317 1387 1448
865 1 1542 1317 1494 1553
866 1 1309 1321 1363 1364
867 1 1338 1321 1290 1348
868 1 1549 1321 1501 1559
869 1 1321 1338 1309 1549
870 1 1348 1338 1300 1538
871 1 1305 1355 1317 1356
872 1 1305 1356 1317 1355
873 1 1307 1360 1319 1359
874 1 1309 1363 1321 1364
875 1 1309 1364 1321 1363
876 1 1542 1494 1317 1553
877 1 1549 1501 1321 1559
878 1 1317 1542 1305 1435
879 1 1553 1542 1505 1641
880 1 1321 1549 1309 1338
881 1 1559 1549 1511 1538
882 1 1320 1308 63 1548
883 1 63 1320 15 77
884 1 1308 1320 1361 1362
885 1 1548 1320 1500 1562
886 1 1308 1361 1320 1362
887 1 1308 1362 1320 1361
888 1 1310 1366 1322 1365
889 1 1548 1500 1320 1562
890 1 1320 1548 1308 63
891 1 1562 1548 1514 267
892 1 271 223 1530 283
893 1 283 271 235 264
894 1 1530 271 1518 1544
895 1 279 231 1534 286
896 1 281 233 369 270
897 1 286 238 371 279
898 1 286 279 238 371
899 1 1534 279 1522 1658
900 1 270 281 222 45
901 1 369 281 357 176
902 1 279 286 231 1534
903 1 371 286 359 1663
904 1 272 224 258 284
905 1 273 225 259 292
906 1 292 244 374 273
907 1 258 272 246 907
908 1 284 272 236 900
909 1 259 273 247 380
910 1 292 273 244 374
911 1 273 292 225 259
912 1 374 292 362 397
913 1 258 246 907 272
914 1 246 258 297 298
915 1 272 258 224 284
916 1 907 258 859 919
917 1 907 859 258 919
918 1 915 867 262 922
919 1 922 874 1007 915
920 1 258 907 246 272
921 1 919 907 871 900
922 1 262 915 250 386
923 1 922 915 874 1007
924 1 915 922 867 262
925 1 1007 922 995 391
926 1 909 861 895 928
927 1 917 869 1005 906
928 1 928 880 1010 909
929 1 895 909 883 1016
930 1 928 909 880 1010
931 1 906 917 858 681
932 1 1005 917 993 812
933 1 909 928 861 895
934 1 1010 928 998 1033
935 1 908 860 894 920
936 1 894 882 1543 908
937 1 882 894 933 934
938 1 908 894 860 920
939 1 1543 894 1495 1555
940 1 894 908 882 1543
941 1 920 908 872 1536
942 1 1543 1495 894 1555
943 1 894 1543 882 908
944 1 1555 1543 1507 1536
945 1 1551 1503 898 1558
946 1 1553 1505 1641 1542
947 1 1558 1510 1643 1551
948 1 898 1551 886 1022
949 1 1558 1551 1510 1643
950 1 1542 1553 1494 1317
951 1 1641 1553 1629 1448
952 1 1551 1558 1503 898
953 1 1643 1558 1631 1027
954 1 1544 1496 1530 1556
955 1 1545 1497 1531 1564
956 1 1564 1516 1646 1545
957 1 1531 1545 1519 1652
958 1 1564 1545 1516 1646
959 1 1545 1564 1497 1531
960 1 1646 1564 1634 1669
961 1 1530 1518 271 1544
962 1 271 1530 223 283
963 1 1518 1530 1569 1570
964 1 1544 1530 1496 1556
965 1 1530 1544 1518 271
966 1 1556 1544 1508 264
967 1 275 227 1532 289
968 1 289 275 241 479
969 1 1532 275 1520 1760
970 1 278 230 261 288
971 1 259 247 273 380
972 1 261 249 489 278
973 1 247 259 299 300
974 1 273 259 225 292
975 1 380 259 332 397
976 1 249 261 303 304
977 1 278 261 230 288
978 1 489 261 441 499
979 1 261 278 249 489
980 1 288 278 240 478
981 1 246 298 258 297
982 1 247 299 259 300
983 1 247 300 259 299
984 1 249 303 261 304
985 1 249 304 261 303
986 1 489 441 261 499
987 1 261 489 249 278
988 1 499 489 451 478
989 1 257 245 375 482
990 1 260 248 911 488
991 1 262 250 915 386
992 1 245 257 295 296
993 1 375 257 327 388
994 1 482 257 434 493
995 1 248 260 301 302
996 1 488 260 440 502
997 1 911 260 863 925
998 1 250 262 305 306
999 1 386 262 338 391
1000 1 915 262 867 922
1001 1 245 295 257 296
1002 1 245 296 257 295
1003 1 246 297 258 298
1004 1 248 301 260 302
1005 1 248 302 260 301
1006 1 250 305 262 306
1007 1 250 306 262 305
1008 1 488 440 260 502
1009 1 260 488 248 911
1010 1 502 488 454 1115
1011 1 911 863 260 925
1012 1 260 911 248 488
1013 1 925 911 877 1115
1014 1 914 866 897 924
1015 1 897 914 885 1125
1016 1 924 914 876 1114
1017 1 893 881 1011 1118
1018 1 895 883 909 1016
1019 1 896 884 1547 1124
1020 1 897 885 1125 914
1021 1 898 886 1551 1022
1022 1 881 893 931 932
1023 1 1011 893 963 1024
1024 1 1118 893 1070 1129
1025 1 883 895 935 936
1026 1 909 895 861 928
1027 1 1016 895 968 1033
1028 1 885 897 939 940
1029 1 914 897 866 924
1030 1 1125 897 1077 1135
1031 1 881 931 893 932
1032 1 881 932 893 931
1033 1 882 933 894 934
1034 1 882 934 894 933
1035 1 883 935 895 936
1036 1 883 936 895 935
1037 1 884 938 896 937
1038 1 885 939 897 940
1039 1 885 940 897 939
1040 1 886 942 898 941
1041 1 1125 1077 897 1135
1042 1 897 1125 885 914
1043 1 1135 1125 1087 1114
1044 1 884 896 937 938
1045 1 1124 896 1076 1138
1046 1 1547 896 1499 1561
1047 1 886 898 941 942
1048 1 1022 898 974 1027
1049 1 1551 898 1503 1558
1050 1 884 937 896 938
1051 1 886 941 898 942
1052 1 1124 1076 896 1138
1053 1 896 1124 884 1547
1054 1 1138 1124 1090 1751
1055 1 1547 1499 896 1561
1056 1 896 1547 884 1124
1057 1 1561 1547 1513 1751
1058 1 1550 1502 1533 1560
1059 1 1531 1519 1545 1652
1060 1 1533 1521 1761 1550
1061 1 1519 1531 1571 1572
1062 1 1545 1531 1497 1564
1063 1 1652 1531 1604 1669
1064 1 1521 1533 1575 1576
1065 1 1550 1533 1502 1560
1066 1 1761 1533 1713 1771
1067 1 1533 1550 1521 1761
1068 1 1560 1550 1512 1750
1069 1 1519 1571 1531 1572
1070 1 1519 1572 1531 1571
1071 1 1521 1575 1533 1576
1072 1 1521 1576 1533 1575
1073 1 1761 1713 1533 1771
1074 1 1533 1761 1521 1550
1075 1 1771 1761 1723 1750
1076 1 1529 1517 1647 1754
1077 1 1532 1520 275 1760
1078 1 1534 1522 279 1658
1079 1 1517 1529 1567 1568
1080 1 1647 1529 1599 1660
1081 1 1754 1529 1706 1765
1082 1 275 1532 227 289
1083 1 1520 1532 1573 1574
1084 1 1760 1532 1712 1774
1085 1 279 1534 231 286
1086 1 1522 1534 1577 1578
1087 1 1658 1534 1610 1663
1088 1 1517 1567 1529 1568
1089 1 1517 1568 1529 1567
1090 1 1518 1569 1530 1570
1091 1 1518 1570 1530 1569
1092 1 1520 1573 1532 1574
1093 1 1520 1574 1532 1573
1094 1 1522 1577 1534 1578
1095 1 1522 1578 1534 1577
1096 1 1760 1712 1532 1774
1097 1 1532 1760 1520 275
1098 1 1774 1760 1726 479
1099 1 495 483 447 476
1100 1 1742 483 1730 1756
1101 1 483 435 1742 495
1102 1 482 434 257 493
1103 1 493 445 581 482
1104 1 257 482 245 375
1105 1 493 482 445 581
1106 1 482 493 434 257
1107 1 581 493 569 388
1108 1 484 436 470 496
1109 1 458 470 509 510
1110 1 484 470 436 496
1111 1 1119 470 1071 1131
1112 1 470 484 458 1119
1113 1 496 484 448 1112
1114 1 1119 1071 470 1131
1115 1 470 1119 458 484
1116 1 1131 1119 1083 1112
1117 1 1118 1070 893 1129
1118 1 1129 1081 1217 1118
1119 1 893 1118 881 1011
1120 1 1129 1118 1081 1217
1121 1 1118 1129 1070 893
1122 1 1217 1129 1205 1024
1123 1 1120 1072 1106 1132
1124 1 1094 1106 1145 1146
1125 1 1120 1106 1072 1132
1126 1 1755 1106 1707 1767
1127 1 1106 1120 1094 1755
1128 1 1132 1120 1084 1748
1129 1 1755 1707 1106 1767
1130 1 1106 1755 1094 1120
1131 1 1767 1755 1719 1748
1132 1 1754 1706 1529 1765
1133 1 1765 1717 1853 1754
1134 1 1529 1754 1517 1647
1135 1 1765 1754 1717 1853
1136 1 1754 1765 1706 1529
1137 1 1853 1765 1841 1660
1138 1 1756 1708 1742 1768
1139 1 483 1742 435 495
1140 1 1730 1742 1781 1782
1141 1 1756 1742 1708 1768
1142 1 1742 1756 1730 483
1143 1 1768 1756 1720 476
1144 1 487 439 1744 501
1145 1 491 443 1746 498
1146 1 498 450 583 491
1147 1 501 487 453 55
1148 1 1744 487 1732 1336
1149 1 498 491 450 583
1150 1 1746 491 1734 1870
1151 1 491 498 443 1746
1152 1 583 498 571 1875
1153 1 485 437 471 504
1154 1 490 442 473 500
1155 1 504 456 586 485
1156 1 459 471 511 512
1157 1 485 471 437 504
1158 1 592 471 544 609
1159 1 65 473 17 75
1160 1 461 473 515 516
1161 1 490 473 442 500
1162 1 471 485 459 592
1163 1 504 485 456 586
1164 1 473 490 461 65
1165 1 500 490 452 54
1166 1 485 504 437 471
1167 1 586 504 574 609
1168 1 459 511 471 512
1169 1 461 516 473 515
1170 1 469 457 587 58
1171 1 470 458 1119 484
1172 1 471 459 485 592
1173 1 472 460 1123 64
1174 1 473 461 65 490
1175 1 474 462 1127 598
1176 1 64 472 16 78
1177 1 460 472 513 514
1178 1 1123 472 1075 1137
1179 1 462 474 517 518
1180 1 598 474 550 603
1181 1 1127 474 1079 1134
1182 1 457 507 469 508
1183 1 457 508 469 507
1184 1 458 509 470 510
1185 1 458 510 470 509
1186 1 459 512 471 511
1187 1 460 513 472 514
1188 1 460 514 472 513
1189 1 461 515 473 516
1190 1 462 517 474 518
1191 1 462 518 474 517
1192 1 1123 1075 472 1137
1193 1 1127 1079 474 1134
1194 1 1134 1086 1219 1127
1195 1 472 1123 460 64
1196 1 1137 1123 1089 691
1197 1 474 1127 462 598
1198 1 1134 1127 1086 1219
1199 1 1127 1134 1079 474
1200 1 1219 1134 1207 603
1201 1 1121 1073 1107 1140
1202 1 1126 1078 1109 1136
1203 1 1140 1092 1222 1121
1204 1 1105 1093 1223 694
1205 1 1106 1094 1755 1120
1206 1 1107 1095 1121 1228
1207 1 1109 1097 701 1126
1208 1 1095 1107 1147 1148
1209 1 1121 1107 1073 1140
1210 1 1228 1107 1180 1245
1211 1 701 1109 653 711
1212 1 1097 1109 1151 1152
1213 1 1126 1109 1078 1136
1214 1 1107 1121 1095 1228
1215 1 1140 1121 1092 1222
1216 1 1109 1126 1097 701
1217 1 1136 1126 1088 690
1218 1 1121 1140 1073 1107
1219 1 1222 1140 1210 1245
1220 1 1093 1143 1105 1144
1221 1 1093 1144 1105 1143
1222 1 1094 1146 1106 1145
1223 1 1095 1147 1107 1148
1224 1 1095 1148 1107 1147
1225 1 1097 1151 1109 1152
1226 1 1097 1152 1109 1151
1227 1 1108 1096 1759 700
1228 1 1110 1098 1763 1234
1229 1 700 1108 652 714
1230 1 1096 1108 1149 1150
1231 1 1759 1108 1711 1773
1232 1 1098 1110 1153 1154
1233 1 1234 1110 1186 1239
1234 1 1763 1110 1715 1770
1235 1 1094 1145 1106 1146
1236 1 1096 1149 1108 1150
1237 1 1096 1150 1108 1149
1238 1 1098 1153 1110 1154
1239 1 1098 1154 1110 1153
1240 1 1759 1711 1108 1773
1241 1 1763 1715 1110 1770
1242 1 1770 1722 1855 1763
1243 1 1108 1759 1096 700
1244 1 1773 1759 1725 1327
1245 1 1110 1763 1098 1234
1246 1 1770 1763 1722 1855
1247 1 1763 1770 1715 1110
1248 1 1855 1770 1843 1239
1249 1 1757 1709 1743 1776
1250 1 1762 1714 1745 1772
1251 1 1776 1728 1858 1757
1252 1 1731 1743 1783 1784
1253 1 1757 1743 1709 1776
1254 1 1864 1743 1816 1881
1255 1 1337 1745 1289 1347
1256 1 1733 1745 1787 1788
1257 1 1762 1745 1714 1772
1258 1 1743 1757 1731 1864
1259 1 1776 1757 1728 1858
1260 1 1745 1762 1733 1337
1261 1 1772 1762 1724 1326
1262 1 1757 1776 1709 1743
1263 1 1858 1776 1846 1881
1264 1 1741 1729 1859 1330
1265 1 1742 1730 483 1756
1266 1 1743 1731 1757 1864
1267 1 1744 1732 487 1336
1268 1 1745 1733 1337 1762
1269 1 1746 1734 491 1870
1270 1 487 1744 439 501
1271 1 1336 1744 1288 1350
1272 1 1732 1744 1785 1786
1273 1 491 1746 443 498
1274 1 1734 1746 1789 1790
1275 1 1870 1746 1822 1875
1276 1 1729 1779 1741 1780
1277 1 1729 1780 1741 1779
1278 1 1730 1781 1742 1782
1279 1 1730 1782 1742 1781
1280 1 1731 1783 1743 1784
1281 1 1731 1784 1743 1783
1282 1 1732 1785 1744 1786
1283 1 1732 1786 1744 1785
1284 1 1733 1787 1745 1788
1285 1 1733 1788 1745 1787
1286 1 1734 1789 1746 1790
1287 1 1734 1790 1746 1789
1288 1 58 469 10 69
1289 1 457 469 507 508
1290 1 587 469 539 600
1291 1 694 1105 646 705
1292 1 1093 1105 1143 1144
1293 1 1223 1105 1175 1236
1294 1 1330 1741 1282 1341
1295 1 1729 1741 1779 1780
1296 1 1859 1741 1811 1872
1297 1 69 157 21 58
1298 1 145 157 201 202
1299 1 600 157 552 587
1300 1 705 793 657 694
1301 1 781 793 837 838
1302 1 1236 793 1188 1223
1303 1 1341 1429 1293 1330
1304 1 1417 1429 1473 1474
1305 1 1872 1429 1824 1859
1306 1 157 145 69 600
1307 1 158 146 177 1450
1308 1 159 147 1451 74
1309 1 160 148 181 606
1310 1 161 149 607 1456
1311 1 162 150 185 80
1312 1 74 159 26 67
1313 1 147 159 205 206
1314 1 1451 159 1403 1446
1315 1 149 161 209 210
1316 1 607 161 559 593
1317 1 1456 161 1408 1442
1318 1 145 201 157 202
1319 1 145 202 157 201
1320 1 146 203 158 204
1321 1 146 204 158 203
1322 1 147 205 159 206
1323 1 147 206 159 205
1324 1 148 207 160 208
1325 1 148 208 160 207
1326 1 149 209 161 210
1327 1 149 210 161 209
1328 1 150 211 162 212
1329 1 150 212 162 211
1330 1 168 120 47 185
1331 1 181 133 160 171
1332 1 185 137 162 168
1333 1 148 160 207 208
1334 1 181 160 133 171
1335 1 606 160 558 596
1336 1 80 162 32 61
1337 1 150 162 211 212
1338 1 185 162 137 168
1339 1 47 168 35 61
1340 1 185 168 137 162
1341 1 160 181 148 606
1342 1 171 181 123 579
1343 1 162 185 150 80
1344 1 168 185 120 47
1345 1 174 126 50 179
1346 1 179 131 795 174
1347 1 184 136 797 170
1348 1 50 174 38 703
1349 1 179 174 131 795
1350 1 174 179 126 50
1351 1 795 179 783 710
1352 1 170 184 122 578
1353 1 797 184 785 1243
1354 1 795 783 179 710
1355 1 797 785 1243 184
1356 1 179 795 131 174
1357 1 710 795 662 703
1358 1 783 795 841 842
1359 1 184 797 136 170
1360 1 785 797 845 846
1361 1 1243 797 1195 1229
1362 1 782 840 794 839
1363 1 783 841 795 842
1364 1 783 842 795 841
1365 1 785 845 797 846
1366 1 785 846 797 845
1367 1 804 756 683 821
1368 1 817 769 796 807
1369 1 821 773 798 804
1370 1 793 781 705 1236
1371 1 794 782 813 178
1372 1 796 784 817 1242
1373 1 798 786 821 716
1374 1 784 796 843 844
1375 1 817 796 769 807
1376 1 1242 796 1194 1232
1377 1 716 798 668 697
1378 1 786 798 847 848
1379 1 821 798 773 804
1380 1 683 804 671 697
1381 1 821 804 773 798
1382 1 796 817 784 1242
1383 1 807 817 759 1215
1384 1 798 821 786 716
1385 1 804 821 756 683
1386 1 781 837 793 838
1387 1 781 838 793 837
1388 1 782 839 794 840
1389 1 784 843 796 844
1390 1 784 844 796 843
1391 1 786 847 798 848
1392 1 786 848 798 847
1393 1 810 762 686 815
1394 1 815 767 1431 810
1395 1 820 772 1433 806
1396 1 686 810 674 1339
1397 1 815 810 767 1431
1398 1 810 815 762 686
1399 1 1431 815 1419 1346
1400 1 806 820 758 1214
1401 1 1433 820 1421 1879
1402 1 1429 1417 1341 1872
1403 1 1430 1418 1449 814
1404 1 1431 1419 815 1346
1405 1 1432 1420 1453 1878
1406 1 1433 1421 1879 820
1407 1 1434 1422 1457 1352
1408 1 815 1431 767 810
1409 1 1346 1431 1298 1339
1410 1 1419 1431 1477 1478
1411 1 820 1433 772 806
1412 1 1421 1433 1481 1482
1413 1 1879 1433 1831 1865
1414 1 1417 1473 1429 1474
1415 1 1417 1474 1429 1473
1416 1 1418 1475 1430 1476
1417 1 1418 1476 1430 1475
1418 1 1419 1477 1431 1478
1419 1 1419 1478 1431 1477
1420 1 1420 1480 1432 1479
1421 1 1421 1481 1433 1482
1422 1 1421 1482 1433 1481
1423 1 1422 1484 1434 1483
1424 1 1440 1392 1319 1457
1425 1 1453 1405 1432 1443
1426 1 1457 1409 1434 1440
1427 1 1420 1432 1479 1480
1428 1 1453 1432 1405 1443
1429 1 1878 1432 1830 1868
1430 1 1352 1434 1304 1333
1431 1 1422 1434 1483 1484
1432 1 1457 1434 1409 1440
1433 1 1319 1440 1307 1333
1434 1 1457 1440 1409 1434
1435 1 1432 1453 1420 1878
1436 1 1443 1453 1395 1851
1437 1 1434 1457 1422 1352
1438 1 1440 1457 1392 1319
1439 1 1420 1479 1432 1480
1440 1 1422 1483 1434 1484
1441 1 1446 1398 1322 1451
1442 1 1451 1403 159 1446
1443 1 1456 1408 161 1442
1444 1 1322 1446 1310 67
1445 1 1451 1446 1403 159
1446 1 159 1451 147 74
1447 1 1446 1451 1398 1322
1448 1 161 1456 149 607
1449 1 1442 1456 1394 1850
1450 1 177 129 158 165
1451 1 146 158 203 204
1452 1 177 158 129 165
1453 1 1450 158 1402 1438
1454 1 158 177 146 1450
1455 1 165 177 117 1424
1456 1 163 115 45 176
1457 1 176 128 369 163
1458 1 45 163 33 270
1459 1 176 163 128 369
1460 1 163 176 115 45
1461 1 369 176 357 281
1462 1 178 130 794 166
1463 1 166 178 118 152
1464 1 794 178 782 813
1465 1 813 765 794 801
1466 1 178 794 130 166
1467 1 782 794 839 840
1468 1 813 794 765 801
1469 1 794 813 782 178
1470 1 801 813 753 152
1471 1 799 751 681 812
1472 1 812 764 1005 799
1473 1 681 799 669 906
1474 1 812 799 764 1005
1475 1 799 812 751 681
1476 1 1005 812 993 917
1477 1 814 766 1430 802
1478 1 802 814 754 788
1479 1 1430 814 1418 1449
1480 1 1449 1401 1430 1437
1481 1 814 1430 766 802
1482 1 1418 1430 1475 1476
1483 1 1449 1430 1401 1437
1484 1 1430 1449 1418 814
1485 1 1437 1449 1389 788
1486 1 1435 1387 1317 1448
1487 1 1448 1400 1641 1435
1488 1 1317 1435 1305 1542
1489 1 1448 1435 1400 1641
1490 1 1435 1448 1387 1317
1491 1 1641 1448 1629 1553
1492 1 1450 1402 158 1438
1493 1 158 1450 146 177
1494 1 1438 1450 1390 1424
1495 1 183 135 373 169
1496 1 169 183 121 1426
1497 1 373 183 361 1668
1498 1 369 357 281 176
1499 1 371 359 1663 286
1500 1 373 361 183 1668
1501 1 176 369 128 163
1502 1 281 369 233 270
1503 1 357 369 413 414
1504 1 286 371 238 279
1505 1 359 371 417 418
1506 1 1663 371 1615 1658
1507 1 183 373 135 169
1508 1 361 373 421 422
1509 1 1668 373 1620 1654
1510 1 357 413 369 414
1511 1 357 414 369 413
1512 1 358 415 370 416
1513 1 358 416 370 415
1514 1 359 417 371 418
1515 1 359 418 371 417
1516 1 361 421 373 422
1517 1 361 422 373 421
1518 1 182 134 372 172
1519 1 172 182 124 155
1520 1 372 182 360 393
1521 1 393 345 372 383
1522 1 372 360 393 182
1523 1 374 362 397 292
1524 1 182 372 134 172
1525 1 360 372 419 420
1526 1 393 372 345 383
1527 1 292 374 244 273
1528 1 362 374 423 424
1529 1 397 374 349 380
1530 1 372 393 360 182
1531 1 383 393 335 155
1532 1 360 419 372 420
1533 1 360 420 372 419
1534 1 362 423 374 424
1535 1 362 424 374 423
1536 1 396 348 1009 382
1537 1 382 396 334 154
1538 1 1009 396 997 819
1539 1 819 771 1009 805
1540 1 805 819 757 154
1541 1 1009 819 997 396
1542 1 391 1007 343 386
1543 1 922 1007 874 915
1544 1 995 1007 1053 1054
1545 1 396 1009 348 382
1546 1 819 1009 771 805
1547 1 997 1009 1057 1058
1548 1 995 1053 1007 1054
1549 1 997 1058 1009 1057
1550 1 818 770 1008 808
1551 1 808 818 760 791
1552 1 1008 818 996 1029
1553 1 1005 993 917 812
1554 1 1007 995 391 922
1555 1 1008 996 1029 818
1556 1 1009 997 819 396
1557 1 1010 998 1033 928
1558 1 812 1005 764 799
1559 1 917 1005 869 906
1560 1 993 1005 1049 1050
1561 1 818 1008 770 808
1562 1 996 1008 1055 1056
1563 1 1029 1008 981 1019
1564 1 928 1010 880 909
1565 1 998 1010 1059 1060
1566 1 1033 1010 985 1016
1567 1 993 1049 1005 1050
1568 1 993 1050 1005 1049
1569 1 994 1051 1006 1052
1570 1 994 1052 1006 1051
1571 1 995 1054 1007 1053
1572 1 996 1055 1008 1056
1573 1 996 1056 1008 1055
1574 1 997 1057 1009 1058
1575 1 998 1059 1010 1060
1576 1 998 1060 1010 1059
1577 1 1029 981 1008 1019
1578 1 1008 1029 996 818
1579 1 1019 1029 971 791
1580 1 1032 984 1645 1018
1581 1 1018 1032 970 790
1582 1 1645 1032 1633 1455
1583 1 1455 1407 1645 1441
1584 1 1441 1455 1393 790
1585 1 1645 1455 1633 1032
1586 1 1641 1629 1553 1448
1587 1 1643 1631 1027 1558
1588 1 1645 1633 1455 1032
1589 1 1448 1641 1400 1435
1590 1 1553 1641 1505 1542
1591 1 1629 1641 1685 1686
1592 1 1027 1643 979 1022
1593 1 1558 1643 1510 1551
1594 1 1631 1643 1689 1690
1595 1 1032 1645 984 1018
1596 1 1455 1645 1407 1441
1597 1 1633 1645 1693 1694
1598 1 1629 1685 1641 1686
1599 1 1629 1686 1641 1685
1600 1 1630 1688 1642 1687
1601 1 1631 1689 1643 1690
1602 1 1631 1690 1643 1689
1603 1 1633 1693 1645 1694
1604 1 1633 1694 1645 1693
1605 1 1454 1406 1644 1444
1606 1 1444 1454 1396 1427
1607 1 1644 1454 1632 1665
1608 1 1665 1617 1644 1655
1609 1 1644 1632 1665 1454
1610 1 1646 1634 1669 1564
1611 1 1454 1644 1406 1444
1612 1 1632 1644 1691 1692
1613 1 1665 1644 1617 1655
1614 1 1564 1646 1516 1545
1615 1 1634 1646 1695 1696
1616 1 1669 1646 1621 1652
1617 1 1644 1665 1632 1454
1618 1 1655 1665 1607 1427
1619 1 1630 1687 1642 1688
1620 1 1632 1691 1644 1692
1621 1 1632 1692 1644 1691
1622 1 1634 1695 1646 1696
1623 1 1634 1696 1646 1695
1624 1 1668 1620 373 1654
1625 1 373 1668 361 183
1626 1 1654 1668 1606 1426
1627 1 370 358 389 1662
1628 1 358 370 415 416
1629 1 389 370 341 377
1630 1 1662 370 1614 1650
1631 1 370 389 358 1662
1632 1 377 389 329 1636
1633 1 380 332 259 397
1634 1 389 341 370 377
1635 1 397 349 374 380
1636 1 259 380 247 273
1637 1 397 380 349 374
1638 1 374 397 362 292
1639 1 380 397 332 259
1640 1 375 327 257 388
1641 1 386 338 262 391
1642 1 391 343 1007 386
1643 1 257 375 245 482
1644 1 388 375 340 581
1645 1 262 386 250 915
1646 1 391 386 343 1007
1647 1 386 391 338 262
1648 1 1007 391 995 922
1649 1 390 342 1006 378
1650 1 378 390 330 364
1651 1 1006 390 994 1025
1652 1 1025 977 1006 1013
1653 1 1006 994 1025 390
1654 1 390 1006 342 378
1655 1 994 1006 1051 1052
1656 1 1025 1006 977 1013
1657 1 1006 1025 994 390
1658 1 1013 1025 965 364
1659 1 1011 963 893 1024
1660 1 1016 968 895 1033
1661 1 1033 985 1010 1016
1662 1 893 1011 881 1118
1663 1 1024 1011 976 1217
1664 1 895 1016 883 909
1665 1 1033 1016 985 1010
1666 1 1010 1033 998 928
1667 1 1016 1033 968 895
1668 1 1022 974 898 1027
1669 1 1026 978 1642 1014
1670 1 1027 979 1643 1022
1671 1 898 1022 886 1551
1672 1 1027 1022 979 1643
1673 1 1014 1026 966 1000
1674 1 1642 1026 1630 1661
1675 1 1022 1027 974 898
1676 1 1643 1027 1631 1558
1677 1 1642 1630 1661 1026
1678 1 1026 1642 978 1014
1679 1 1630 1642 1687 1688
1680 1 1661 1642 1613 1649
1681 1 1652 1604 1531 1669
1682 1 1661 1613 1642 1649
1683 1 1669 1621 1646 1652
1684 1 1531 1652 1519 1545
1685 1 1669 1652 1621 1646
1686 1 1642 1661 1630 1026
1687 1 1649 1661 1601 1000
1688 1 1646 1669 1634 1564
1689 1 1652 1669 1604 1531
1690 1 1647 1599 1529 1660
1691 1 1658 1610 1534 1663
1692 1 1663 1615 371 1658
1693 1 1529 1647 1517 1754
1694 1 1660 1647 1612 1853
1695 1 1534 1658 1522 279
1696 1 1663 1658 1615 371
1697 1 371 1663 359 286
1698 1 1658 1663 1610 1534
1699 1 1662 1614 370 1650
1700 1 370 1662 358 389
1701 1 1650 1662 1602 1636
1702 1 395 347 585 381
1703 1 381 395 333 1638
1704 1 585 395 573 1880
1705 1 585 573 395 1880
1706 1 395 585 347 381
1707 1 573 585 633 634
1708 1 1880 585 1832 1866
1709 1 571 630 583 629
1710 1 573 633 585 634
1711 1 573 634 585 633
1712 1 388 340 581 375
1713 1 394 346 584 384
1714 1 375 388 327 257
1715 1 581 388 569 493
1716 1 384 394 336 367
1717 1 584 394 572 605
1718 1 605 557 584 595
1719 1 581 569 493 388
1720 1 584 572 605 394
1721 1 388 581 340 375
1722 1 493 581 445 482
1723 1 569 581 625 626
1724 1 394 584 346 384
1725 1 572 584 631 632
1726 1 605 584 557 595
1727 1 584 605 572 394
1728 1 595 605 547 367
1729 1 569 625 581 626
1730 1 569 626 581 625
1731 1 572 631 584 632
1732 1 572 632 584 631
1733 1 574 636 586 635
1734 1 608 560 1221 594
1735 1 594 608 546 366
1736 1 1221 608 1209 1031
1737 1 1024 976 1217 1011
1738 1 1031 983 1221 1017
1739 1 1011 1024 963 893
1740 1 1217 1024 1205 1129
1741 1 1017 1031 969 366
1742 1 1221 1031 1209 608
1743 1 1217 1205 1129 1024
1744 1 1220 1208 1241 1030
1745 1 1221 1209 1031 608
1746 1 1024 1217 976 1011
1747 1 1129 1217 1081 1118
1748 1 1205 1217 1261 1262
1749 1 608 1221 560 594
1750 1 1031 1221 983 1017
1751 1 1209 1221 1269 1270
1752 1 1205 1261 1217 1262
1753 1 1205 1262 1217 1261
1754 1 1207 1266 1219 1265
1755 1 1208 1268 1220 1267
1756 1 1209 1269 1221 1270
1757 1 1209 1270 1221 1269
1758 1 1210 1272 1222 1271
1759 1 1030 982 1220 1020
1760 1 1020 1030 972 1003
1761 1 1220 1030 1208 1241
1762 1 1241 1193 1220 1231
1763 1 1030 1220 982 1020
1764 1 1208 1220 1267 1268
1765 1 1241 1220 1193 1231
1766 1 1220 1241 1208 1030
1767 1 1231 1241 1183 1003
1768 1 1208 1267 1220 1268
1769 1 1244 1196 1857 1230
1770 1 1230 1244 1182 1002
1771 1 1857 1244 1845 1667
1772 1 1667 1619 1857 1653
1773 1 1653 1667 1605 1002
1774 1 1857 1667 1845 1244
1775 1 1857 1845 1667 1244
1776 1 1244 1857 1196 1230
1777 1 1667 1857 1619 1653
1778 1 1845 1857 1905 1906
1779 1 1843 1902 1855 1901
1780 1 1845 1905 1857 1906
1781 1 1845 1906 1857 1905
1782 1 1660 1612 1853 1647
1783 1 1666 1618 1856 1656
1784 1 1647 1660 1599 1529
1785 1 1853 1660 1841 1765
1786 1 1656 1666 1608 1639
1787 1 1856 1666 1844 1877
1788 1 1877 1829 1856 1867
1789 1 1853 1841 1765 1660
1790 1 1856 1844 1877 1666
1791 1 1660 1853 1612 1647
1792 1 1765 1853 1717 1754
1793 1 1841 1853 1897 1898
1794 1 1666 1856 1618 1656
1795 1 1844 1856 1903 1904
1796 1 1877 1856 1829 1867
1797 1 1856 1877 1844 1666
1798 1 1867 1877 1819 1639
1799 1 1841 1897 1853 1898
1800 1 1841 1898 1853 1897
1801 1 1844 1903 1856 1904
1802 1 1844 1904 1856 1903
1803 1 1846 1908 1858 1907
1804 1 1880 1832 585 1866
1805 1 585 1880 573 395
1806 1 1866 1880 1818 1638
1807 1 583 571 1875 498
1808 1 498 583 450 491
1809 1 571 583 629 630
1810 1 1875 583 1827 1870
1811 1 570 628 582 627
1812 1 571 629 583 630
1813 1 592 544 471 609
1814 1 601 553 582 589
1815 1 609 561 586 592
1816 1 582 570 601 1874
1817 1 586 574 609 504
1818 1 570 582 627 628
1819 1 601 582 553 589
1820 1 1874 582 1826 1862
1821 1 504 586 456 485
1822 1 574 586 635 636
1823 1 609 586 561 592
1824 1 471 592 459 485
1825 1 609 592 561 586
1826 1 582 601 570 1874
1827 1 589 601 541 1848
1828 1 586 609 574 504
1829 1 592 609 544 471
1830 1 570 627 582 628
1831 1 574 635 586 636
1832 1 587 539 469 600
1833 1 598 550 474 603
1834 1 603 555 1219 598
1835 1 474 598 462 1127
1836 1 603 598 555 1219
1837 1 598 603 550 474
1838 1 1219 603 1207 1134
1839 1 602 554 1218 590
1840 1 590 602 542 576
1841 1 1218 602 1206 1237
1842 1 1237 1189 1218 1225
1843 1 1218 1206 1237 602
1844 1 1219 1207 603 1134
1845 1 1222 1210 1245 1140
1846 1 602 1218 554 590
1847 1 1206 1218 1263 1264
1848 1 1237 1218 1189 1225
1849 1 603 1219 555 598
1850 1 1134 1219 1086 1127
1851 1 1207 1219 1265 1266
1852 1 1218 1237 1206 602
1853 1 1225 1237 1177 576
1854 1 1206 1263 1218 1264
1855 1 1206 1264 1218 1263
1856 1 1207 1265 1219 1266
1857 1 1223 1175 1105 1236
1858 1 1228 1180 1107 1245
1859 1 1245 1197 1222 1228
1860 1 1140 1222 1092 1121
1861 1 1210 1222 1271 1272
1862 1 1245 1222 1197 1228
1863 1 1107 1228 1095 1121
1864 1 1245 1228 1197 1222
1865 1 1222 1245 1210 1140
1866 1 1228 1245 1180 1107
1867 1 1210 1271 1222 1272
1868 1 1234 1186 1110 1239
1869 1 1238 1190 1854 1226
1870 1 1239 1191 1855 1234
1871 1 1110 1234 1098 1763
1872 1 1239 1234 1191 1855
1873 1 1234 1239 1186 1110
1874 1 1855 1239 1843 1770
1875 1 1855 1843 1239 1770
1876 1 1239 1855 1191 1234
1877 1 1770 1855 1722 1763
1878 1 1843 1855 1901 1902
1879 1 1843 1901 1855 1902
1880 1 1226 1238 1178 1212
1881 1 1854 1238 1842 1873
1882 1 1873 1825 1854 1861
1883 1 1881 1833 1858 1864
1884 1 1854 1842 1873 1238
1885 1 1858 1846 1881 1776
1886 1 1238 1854 1190 1226
1887 1 1842 1854 1899 1900
1888 1 1873 1854 1825 1861
1889 1 1776 1858 1728 1757
1890 1 1846 1858 1907 1908
1891 1 1881 1858 1833 1864
1892 1 1743 1864 1731 1757
1893 1 1881 1864 1833 1858
1894 1 1854 1873 1842 1238
1895 1 1861 1873 1813 1212
1896 1 1858 1881 1846 1776
1897 1 1864 1881 1816 1743
1898 1 1842 1899 1854 1900
1899 1 1842 1900 1854 1899
1900 1 1846 1907 1858 1908
1901 1 1859 1811 1741 1872
1902 1 1864 1816 1743 1881
1903 1 1870 1822 1746 1875
1904 1 1746 1870 1734 491
1905 1 1875 1870 1827 583
1906 1 1874 1826 582 1862
1907 1 1875 1827 583 1870
1908 1 582 1874 570 601
1909 1 1862 1874 1814 1848
1910 1 583 1875 571 498
1911 1 1870 1875 1822 1746
1912 1 607 559 161 593
1913 1 161 607 149 1456
1914 1 593 607 545 1850
1915 1 600 552 157 587
1916 1 606 558 160 596
1917 1 469 587 457 58
1918 1 600 587 552 157
1919 1 157 600 145 69
1920 1 587 600 539 469
1921 1 160 606 148 181
1922 1 596 606 548 579
1923 1 1236 1188 793 1223
1924 1 1243 1195 797 1229
1925 1 1105 1223 1093 694
1926 1 1236 1223 1188 793
1927 1 793 1236 781 705
1928 1 1223 1236 1175 1105
1929 1 797 1243 785 184
1930 1 1229 1243 1181 578
1931 1 1242 1194 796 1232
1932 1 796 1242 784 817
1933 1 1232 1242 1184 1215
1934 1 1433 1879 1421 820
1935 1 1865 1879 1817 1214
1936 1 1872 1824 1429 1859
1937 1 1878 1830 1432 1868
1938 1 1879 1831 1433 1865
1939 1 1741 1859 1729 1330
1940 1 1872 1859 1824 1429
1941 1 1429 1872 1417 1341
1942 1 1859 1872 1811 1741
1943 1 1432 1878 1420 1453
1944 1 1868 1878 1820 1851
1945 1 164 116 575 175
1946 1 171 123 579 181
1947 1 175 127 51 164
1948 1 175 164 127 51
1949 1 575 164 563 481
1950 1 181 171 133 160
1951 1 579 171 567 596
1952 1 51 175 39 494
1953 1 164 175 116 575
1954 1 170 122 578 184
1955 1 184 170 136 797
1956 1 578 170 566 1229
1957 1 807 759 1215 817
1958 1 817 807 769 796
1959 1 1215 807 1203 1232
1960 1 800 752 1211 811
1961 1 806 758 1214 820
1962 1 811 763 687 800
1963 1 811 800 763 687
1964 1 1211 800 1199 1117
1965 1 820 806 772 1433
1966 1 1214 806 1202 1865
1967 1 687 811 675 1130
1968 1 800 811 752 1211
1969 1 1436 1388 1847 1447
1970 1 1443 1395 1851 1453
1971 1 1447 1399 1323 1436
1972 1 1447 1436 1399 1323
1973 1 1847 1436 1835 1753
1974 1 1453 1443 1405 1432
1975 1 1851 1443 1839 1868
1976 1 1323 1447 1311 1766
1977 1 1436 1447 1388 1847
1978 1 1442 1394 1850 1456
1979 1 1456 1442 1408 161
1980 1 1850 1442 1838 593
1981 1 165 117 1424 177
1982 1 177 165 129 158
1983 1 1424 165 1412 1438
1984 1 169 121 1426 183
1985 1 173 125 1428 180
1986 1 180 132 53 173
1987 1 180 173 132 53
1988 1 1428 173 1416 1340
1989 1 53 180 41 1345
1990 1 173 180 125 1428
1991 1 166 118 152 178
1992 1 167 119 153 186
1993 1 172 124 155 182
1994 1 186 138 56 167
1995 1 153 141 167 62
1996 1 62 153 14 79
1997 1 141 153 193 194
1998 1 167 153 119 186
1999 1 152 166 140 801
2000 1 178 166 130 794
2001 1 153 167 141 62
2002 1 186 167 138 56
2003 1 56 186 44 79
2004 1 167 186 119 153
2005 1 140 192 152 191
2006 1 141 193 153 194
2007 1 141 194 153 193
2008 1 143 198 155 197
2009 1 152 140 801 166
2010 1 156 144 809 68
2011 1 140 152 191 192
2012 1 166 152 118 178
2013 1 801 152 753 813
2014 1 68 156 20 73
2015 1 144 156 199 200
2016 1 809 156 761 816
2017 1 140 191 152 192
2018 1 142 195 154 196
2019 1 144 199 156 200
2020 1 144 200 156 199
2021 1 801 753 152 813
2022 1 805 757 154 819
2023 1 809 761 156 816
2024 1 816 768 689 809
2025 1 152 801 140 166
2026 1 813 801 765 794
2027 1 156 809 144 68
2028 1 816 809 768 689
2029 1 689 816 677 73
2030 1 809 816 761 156
2031 1 803 755 789 822
2032 1 808 760 791 818
2033 1 822 774 692 803
2034 1 789 803 777 698
2035 1 822 803 774 692
2036 1 692 822 680 715
2037 1 803 822 755 789
2038 1 802 754 788 814
2039 1 788 776 1437 802
2040 1 789 777 803 698
2041 1 792 780 1445 704
2042 1 776 788 827 828
2043 1 802 788 754 814
2044 1 1437 788 1389 1449
2045 1 698 789 650 715
2046 1 777 789 829 830
2047 1 803 789 755 822
2048 1 788 802 776 1437
2049 1 814 802 766 1430
2050 1 776 827 788 828
2051 1 776 828 788 827
2052 1 777 829 789 830
2053 1 777 830 789 829
2054 1 779 834 791 833
2055 1 780 836 792 835
2056 1 1437 1389 788 1449
2057 1 788 1437 776 802
2058 1 1449 1437 1401 1430
2059 1 704 792 656 709
2060 1 780 792 835 836
2061 1 1445 792 1397 1452
2062 1 778 831 790 832
2063 1 780 835 792 836
2064 1 1441 1393 790 1455
2065 1 1445 1397 792 1452
2066 1 1452 1404 1325 1445
2067 1 792 1445 780 704
2068 1 1452 1445 1404 1325
2069 1 1325 1452 1313 709
2070 1 1445 1452 1397 792
2071 1 1438 1390 1424 1450
2072 1 1439 1391 1425 1458
2073 1 1444 1396 1427 1454
2074 1 1458 1410 1328 1439
2075 1 1425 1413 1439 1334
2076 1 1334 1425 1286 1351
2077 1 1413 1425 1465 1466
2078 1 1439 1425 1391 1458
2079 1 1425 1439 1413 1334
2080 1 1458 1439 1410 1328
2081 1 1328 1458 1316 1351
2082 1 1439 1458 1391 1425
2083 1 1413 1465 1425 1466
2084 1 1413 1466 1425 1465
2085 1 1415 1470 1427 1469
2086 1 1424 1412 165 1438
2087 1 1428 1416 173 1340
2088 1 165 1424 117 177
2089 1 1412 1424 1463 1464
2090 1 1438 1424 1390 1450
2091 1 173 1428 125 180
2092 1 1340 1428 1292 1345
2093 1 1416 1428 1471 1472
2094 1 1424 1438 1412 165
2095 1 1450 1438 1402 158
2096 1 1412 1463 1424 1464
2097 1 1412 1464 1424 1463
2098 1 1414 1467 1426 1468
2099 1 1416 1471 1428 1472
2100 1 1416 1472 1428 1471
2101 1 183 169 135 373
2102 1 1426 169 1414 1654
2103 1 155 143 383 172
2104 1 143 155 197 198
2105 1 172 155 124 182
2106 1 383 155 335 393
2107 1 155 172 143 383
2108 1 182 172 134 372
2109 1 143 197 155 198
2110 1 383 335 155 393
2111 1 155 383 143 172
2112 1 393 383 345 372
2113 1 151 139 57 376
2114 1 154 142 805 382
2115 1 57 151 9 70
2116 1 139 151 189 190
2117 1 376 151 328 387
2118 1 142 154 195 196
2119 1 382 154 334 396
2120 1 805 154 757 819
2121 1 139 189 151 190
2122 1 139 190 151 189
2123 1 142 196 154 195
2124 1 376 328 151 387
2125 1 382 334 154 396
2126 1 387 339 263 376
2127 1 151 376 139 57
2128 1 387 376 339 263
2129 1 154 382 142 805
2130 1 396 382 348 1009
2131 1 263 387 251 70
2132 1 376 387 328 151
2133 1 154 805 142 382
2134 1 819 805 771 1009
2135 1 791 808 779 1019
2136 1 818 808 770 1008
2137 1 787 775 693 1012
2138 1 790 778 1441 1018
2139 1 791 779 1019 808
2140 1 693 787 645 706
2141 1 775 787 825 826
2142 1 1012 787 964 1023
2143 1 779 791 833 834
2144 1 808 791 760 818
2145 1 1019 791 971 1029
2146 1 775 825 787 826
2147 1 775 826 787 825
2148 1 778 832 790 831
2149 1 779 833 791 834
2150 1 1012 964 787 1023
2151 1 1019 971 791 1029
2152 1 1023 975 899 1012
2153 1 787 1012 775 693
2154 1 1023 1012 975 899
2155 1 791 1019 779 808
2156 1 1029 1019 981 1008
2157 1 899 1023 887 706
2158 1 1012 1023 964 787
2159 1 778 790 831 832
2160 1 1018 790 970 1032
2161 1 1441 790 1393 1455
2162 1 1018 970 790 1032
2163 1 790 1018 778 1441
2164 1 1032 1018 984 1645
2165 1 790 1441 778 1018
2166 1 1455 1441 1407 1645
2167 1 1427 1415 1655 1444
2168 1 1415 1427 1469 1470
2169 1 1444 1427 1396 1454
2170 1 1655 1427 1607 1665
2171 1 1427 1444 1415 1655
2172 1 1454 1444 1406 1644
2173 1 1415 1469 1427 1470
2174 1 1655 1607 1427 1665
2175 1 1427 1655 1415 1444
2176 1 1665 1655 1617 1644
2177 1 1423 1411 1329 1648
2178 1 1426 1414 169 1654
2179 1 1329 1423 1281 1342
2180 1 1411 1423 1461 1462
2181 1 1648 1423 1600 1659
2182 1 169 1426 121 183
2183 1 1414 1426 1467 1468
2184 1 1654 1426 1606 1668
2185 1 1411 1461 1423 1462
2186 1 1411 1462 1423 1461
2187 1 1414 1468 1426 1467
2188 1 1648 1600 1423 1659
2189 1 1654 1606 1426 1668
2190 1 1659 1611 1535 1648
2191 1 1423 1648 1411 1329
2192 1 1659 1648 1611 1535
2193 1 1426 1654 1414 169
2194 1 1668 1654 1620 373
2195 1 1535 1659 1523 1342
2196 1 1648 1659 1600 1423
2197 1 389 377 341 370
2198 1 1636 377 1624 1650
2199 1 377 329 1636 389
2200 1 385 337 1640 392
2201 1 392 344 265 385
2202 1 392 385 344 265
2203 1 1640 385 1628 1552
2204 1 265 392 253 1557
2205 1 385 392 337 1640
2206 1 379 331 365 398
2207 1 398 350 268 379
2208 1 274 365 226 291
2209 1 353 365 405 406
2210 1 379 365 331 398
2211 1 365 379 353 274
2212 1 398 379 350 268
2213 1 268 398 256 291
2214 1 379 398 331 365
2215 1 353 405 365 406
2216 1 378 330 364 390
2217 1 364 352 1013 378
2218 1 365 353 379 274
2219 1 368 356 1021 280
2220 1 352 364 403 404
2221 1 378 364 330 390
2222 1 1013 364 965 1025
2223 1 280 368 232 285
2224 1 356 368 411 412
2225 1 1021 368 973 1028
2226 1 364 378 352 1013
2227 1 390 378 342 1006
2228 1 352 403 364 404
2229 1 352 404 364 403
2230 1 353 406 365 405
2231 1 356 411 368 412
2232 1 356 412 368 411
2233 1 1013 965 364 1025
2234 1 364 1013 352 378
2235 1 1025 1013 977 1006
2236 1 1021 973 368 1028
2237 1 1028 980 901 1021
2238 1 368 1021 356 280
2239 1 1028 1021 980 901
2240 1 901 1028 889 285
2241 1 1021 1028 973 368
2242 1 1014 966 1000 1026
2243 1 1015 967 1001 1034
2244 1 1034 986 904 1015
2245 1 1000 988 1649 1014
2246 1 1001 989 1015 910
2247 1 988 1000 1039 1040
2248 1 1014 1000 966 1026
2249 1 1649 1000 1601 1661
2250 1 910 1001 862 927
2251 1 989 1001 1041 1042
2252 1 1015 1001 967 1034
2253 1 1000 1014 988 1649
2254 1 1026 1014 978 1642
2255 1 1001 1015 989 910
2256 1 1034 1015 986 904
2257 1 904 1034 892 927
2258 1 1015 1034 967 1001
2259 1 988 1040 1000 1039
2260 1 989 1041 1001 1042
2261 1 989 1042 1001 1041
2262 1 1004 992 1657 916
2263 1 916 1004 868 921
2264 1 992 1004 1047 1048
2265 1 1657 1004 1609 1664
2266 1 988 1039 1000 1040
2267 1 992 1047 1004 1048
2268 1 992 1048 1004 1047
2269 1 1649 1601 1000 1661
2270 1 1657 1609 1004 1664
2271 1 1664 1616 1537 1657
2272 1 1000 1649 988 1014
2273 1 1661 1649 1613 1642
2274 1 1004 1657 992 916
2275 1 1664 1657 1616 1537
2276 1 1537 1664 1525 921
2277 1 1657 1664 1609 1004
2278 1 1651 1603 1637 1670
2279 1 1670 1622 1540 1651
2280 1 1546 1637 1498 1563
2281 1 1625 1637 1677 1678
2282 1 1651 1637 1603 1670
2283 1 1637 1651 1625 1546
2284 1 1670 1651 1622 1540
2285 1 1540 1670 1528 1563
2286 1 1651 1670 1603 1637
2287 1 1650 1602 1636 1662
2288 1 1636 1624 377 1650
2289 1 1637 1625 1651 1546
2290 1 1640 1628 385 1552
2291 1 377 1636 329 389
2292 1 1624 1636 1675 1676
2293 1 1650 1636 1602 1662
2294 1 385 1640 337 392
2295 1 1552 1640 1504 1557
2296 1 1628 1640 1683 1684
2297 1 1636 1650 1624 377
2298 1 1662 1650 1614 370
2299 1 1624 1675 1636 1676
2300 1 1624 1676 1636 1675
2301 1 1625 1677 1637 1678
2302 1 1625 1678 1637 1677
2303 1 1628 1683 1640 1684
2304 1 1628 1684 1640 1683
2305 1 381 333 1638 395
2306 1 395 381 347 585
2307 1 1638 381 1626 1866
2308 1 384 336 367 394
2309 1 355 367 409 410
2310 1 384 367 336 394
2311 1 595 367 547 605
2312 1 367 384 355 595
2313 1 394 384 346 584
2314 1 355 410 367 409
2315 1 595 547 367 605
2316 1 367 595 355 384
2317 1 605 595 557 584
2318 1 363 351 269 588
2319 1 366 354 1017 594
2320 1 367 355 595 384
2321 1 269 363 221 282
2322 1 351 363 401 402
2323 1 588 363 540 599
2324 1 354 366 407 408
2325 1 594 366 546 608
2326 1 1017 366 969 1031
2327 1 351 401 363 402
2328 1 351 402 363 401
2329 1 354 407 366 408
2330 1 354 408 366 407
2331 1 355 409 367 410
2332 1 588 540 363 599
2333 1 594 546 366 608
2334 1 363 588 351 269
2335 1 599 588 551 475
2336 1 366 594 354 1017
2337 1 608 594 560 1221
2338 1 475 599 463 282
2339 1 588 599 540 363
2340 1 1017 969 366 1031
2341 1 366 1017 354 594
2342 1 1031 1017 983 1221
2343 1 1020 972 1003 1030
2344 1 999 987 905 1224
2345 1 1003 991 1231 1020
2346 1 905 999 857 918
2347 1 987 999 1037 1038
2348 1 1224 999 1176 1235
2349 1 991 1003 1045 1046
2350 1 1020 1003 972 1030
2351 1 1231 1003 1183 1241
2352 1 1003 1020 991 1231
2353 1 1030 1020 982 1220
2354 1 987 1037 999 1038
2355 1 987 1038 999 1037
2356 1 991 1045 1003 1046
2357 1 991 1046 1003 1045
2358 1 1224 1176 999 1235
2359 1 1231 1183 1003 1241
2360 1 999 1224 987 905
2361 1 1235 1224 1187 1111
2362 1 1003 1231 991 1020
2363 1 1241 1231 1193 1220
2364 1 1111 1235 1099 918
2365 1 1224 1235 1176 999
2366 1 1002 990 1653 1230
2367 1 990 1002 1043 1044
2368 1 1230 1002 1182 1244
2369 1 1653 1002 1605 1667
2370 1 990 1043 1002 1044
2371 1 990 1044 1002 1043
2372 1 1230 1182 1002 1244
2373 1 1002 1230 990 1653
2374 1 1244 1230 1196 1857
2375 1 1653 1605 1002 1667
2376 1 1002 1653 990 1230
2377 1 1667 1653 1619 1857
2378 1 1656 1608 1639 1666
2379 1 1627 1639 1681 1682
2380 1 1656 1639 1608 1666
2381 1 1867 1639 1819 1877
2382 1 1639 1656 1627 1867
2383 1 1666 1656 1618 1856
2384 1 1639 1867 1627 1656
2385 1 1877 1867 1829 1856
2386 1 1635 1623 1541 1860
2387 1 1638 1626 381 1866
2388 1 1639 1627 1867 1656
2389 1 1541 1635 1493 1554
2390 1 1623 1635 1673 1674
2391 1 1860 1635 1812 1871
2392 1 381 1638 333 395
2393 1 1626 1638 1679 1680
2394 1 1866 1638 1818 1880
2395 1 1623 1673 1635 1674
2396 1 1623 1674 1635 1673
2397 1 1626 1679 1638 1680
2398 1 1626 1680 1638 1679
2399 1 1627 1681 1639 1682
2400 1 1627 1682 1639 1681
2401 1 1860 1812 1635 1871
2402 1 1866 1818 1638 1880
2403 1 1867 1819 1639 1877
2404 1 1635 1860 1623 1541
2405 1 1871 1860 1823 1747
2406 1 1638 1866 1626 381
2407 1 1880 1866 1832 585
2408 1 1747 1871 1735 1554
2409 1 1860 1871 1812 1635
2410 1 589 541 1848 601
2411 1 597 549 1852 604
2412 1 604 556 477 597
2413 1 601 589 553 582
2414 1 1848 589 1836 1862
2415 1 604 597 556 477
2416 1 1852 597 1840 1764
2417 1 477 604 465 1769
2418 1 597 604 549 1852
2419 1 591 543 577 610
2420 1 599 551 475 588
2421 1 610 562 480 591
2422 1 577 591 565 486
2423 1 610 591 562 480
2424 1 480 610 468 503
2425 1 591 610 543 577
2426 1 590 542 576 602
2427 1 576 564 1225 590
2428 1 564 576 615 616
2429 1 590 576 542 602
2430 1 1225 576 1177 1237
2431 1 486 577 438 503
2432 1 565 577 617 618
2433 1 591 577 543 610
2434 1 576 590 564 1225
2435 1 602 590 554 1218
2436 1 564 615 576 616
2437 1 564 616 576 615
2438 1 1225 1177 576 1237
2439 1 576 1225 564 590
2440 1 1237 1225 1189 1218
2441 1 492 580 444 497
2442 1 568 580 623 624
2443 1 1233 580 1185 1240
2444 1 1233 1185 580 1240
2445 1 1235 1187 1111 1224
2446 1 1240 1192 1113 1233
2447 1 580 1233 568 492
2448 1 1240 1233 1192 1113
2449 1 1113 1240 1101 497
2450 1 1233 1240 1185 580
2451 1 1226 1178 1212 1238
2452 1 1227 1179 1213 1246
2453 1 1246 1198 1116 1227
2454 1 1122 1213 1074 1139
2455 1 1201 1213 1253 1254
2456 1 1227 1213 1179 1246
2457 1 1213 1227 1201 1122
2458 1 1246 1227 1198 1116
2459 1 1116 1246 1104 1139
2460 1 1227 1246 1179 1213
2461 1 1212 1200 1861 1226
2462 1 1200 1212 1251 1252
2463 1 1226 1212 1178 1238
2464 1 1861 1212 1813 1873
2465 1 1128 1216 1080 1133
2466 1 1204 1216 1259 1260
2467 1 1869 1216 1821 1876
2468 1 1212 1226 1200 1861
2469 1 1238 1226 1190 1854
2470 1 1200 1251 1212 1252
2471 1 1200 1252 1212 1251
2472 1 1861 1813 1212 1873
2473 1 1869 1821 1216 1876
2474 1 1212 1861 1200 1226
2475 1 1873 1861 1825 1854
2476 1 1216 1869 1204 1128
2477 1 1876 1869 1828 1749
2478 1 1749 1876 1737 1133
2479 1 1869 1876 1821 1216
2480 1 1871 1823 1747 1860
2481 1 1876 1828 1749 1869
2482 1 1882 1834 1752 1863
2483 1 1752 1882 1740 1775
2484 1 1863 1882 1815 1849
2485 1 1862 1814 1848 1874
2486 1 1863 1815 1849 1882
2487 1 1848 1836 589 1862
2488 1 589 1848 541 601
2489 1 1836 1848 1887 1888
2490 1 1862 1848 1814 1874
2491 1 1758 1849 1710 1775
2492 1 1837 1849 1889 1890
2493 1 1863 1849 1815 1882
2494 1 1848 1862 1836 589
2495 1 1874 1862 1826 582
2496 1 1849 1863 1837 1758
2497 1 1882 1863 1834 1752
2498 1 1836 1887 1848 1888
2499 1 1836 1888 1848 1887
2500 1 597 1852 549 604
2501 1 1764 1852 1716 1769
2502 1 1840 1852 1895 1896
2503 1 593 545 1850 607
2504 1 607 593 559 161
2505 1 1850 593 1838 1442
2506 1 596 548 579 606
2507 1 579 596 567 171
2508 1 606 596 558 160
2509 1 575 563 481 164
2510 1 577 565 591 486
2511 1 578 566 1229 170
2512 1 579 567 171 596
2513 1 580 568 1233 492
2514 1 164 575 116 175
2515 1 481 575 433 494
2516 1 563 575 613 614
2517 1 171 579 123 181
2518 1 567 579 621 622
2519 1 596 579 548 606
2520 1 563 613 575 614
2521 1 563 614 575 613
2522 1 565 617 577 618
2523 1 565 618 577 617
2524 1 566 620 578 619
2525 1 567 621 579 622
2526 1 567 622 579 621
2527 1 568 624 580 623
2528 1 170 578 122 184
2529 1 566 578 619 620
2530 1 1229 578 1181 1243
2531 1 566 619 578 620
2532 1 568 623 580 624
2533 1 1229 1181 578 1243
2534 1 578 1229 566 170
2535 1 1243 1229 1195 797
2536 1 1232 1184 1215 1242
2537 1 1213 1201 1227 1122
2538 1 1215 1203 807 1232
2539 1 807 1215 759 817
2540 1 1203 1215 1257 1258
2541 1 1232 1215 1184 1242
2542 1 1215 1232 1203 807
2543 1 1242 1232 1194 796
2544 1 1201 1253 1213 1254
2545 1 1201 1254 1213 1253
2546 1 1203 1257 1215 1258
2547 1 1203 1258 1215 1257
2548 1 1211 1199 1117 800
2549 1 1214 1202 1865 806
2550 1 1216 1204 1869 1128
2551 1 800 1211 752 811
2552 1 1117 1211 1069 1130
2553 1 1199 1211 1249 1250
2554 1 806 1214 758 820
2555 1 1202 1214 1255 1256
2556 1 1865 1214 1817 1879
2557 1 1199 1249 1211 1250
2558 1 1199 1250 1211 1249
2559 1 1202 1255 1214 1256
2560 1 1202 1256 1214 1255
2561 1 1204 1259 1216 1260
2562 1 1204 1260 1216 1259
2563 1 1865 1817 1214 1879
2564 1 1214 1865 1202 806
2565 1 1879 1865 1831 1433
2566 1 1868 1820 1851 1878
2567 1 1847 1835 1753 1436
2568 1 1849 1837 1863 1758
2569 1 1851 1839 1443 1868
2570 1 1436 1847 1388 1447
2571 1 1753 1847 1705 1766
2572 1 1835 1847 1885 1886
2573 1 1443 1851 1395 1453
2574 1 1839 1851 1893 1894
2575 1 1868 1851 1820 1878
2576 1 1851 1868 1839 1443
2577 1 1878 1868 1830 1432
2578 1 1835 1885 1847 1886
2579 1 1835 1886 1847 1885
2580 1 1837 1889 1849 1890
2581 1 1837 1890 1849 1889
2582 1 1838 1892 1850 1891
2583 1 1839 1893 1851 1894
2584 1 1839 1894 1851 1893
2585 1 1840 1896 1852 1895
2586 1 1850 1838 593 1442
2587 1 1852 1840 597 1764
2588 1 593 1850 545 607
2589 1 1442 1850 1394 1456
2590 1 1838 1850 1891 1892
2591 1 1838 1891 1850 1892
2592 1 1840 1895 1852 1896
